LAMMPS data file. msi2lmp v3.9.6 / 11 Sep 2014 / CGCMM for calf20_333_co2_27

   1269 atoms
   1620 bonds
   3267 angles
   6264 dihedrals
    648 impropers

   7 atom types
   8 bond types
  13 angle types
  18 dihedral types
   4 improper types

0.000000 26.741400 xlo xhi
0.000000 29.080500 ylo yhi
0.000000 28.450800 zlo zhi
     0.000000000   -12.425126851     0.000000000 xy xz yz

Masses

   1  65.379997 # Zn_MO
   2  14.007000 # N_MOF
   3  15.999000 # O_MOF
   4  12.011000 # C_MOF
   5   1.008000 # H_MOF
   6  12.011150 # cdc
   7  15.999400 # cdo

Pair Coeffs # lj/cut/coul/long

   1   0.1239998254   2.4616006226 # Zn_MO
   2   0.0689999998   3.2606999705 # N_MOF
   3   0.0599999859   3.1181000355 # O_MOF
   4   0.1050000010   3.4309000743 # C_MOF
   5   0.0440001280   2.5710987454 # H_MOF
   6   0.0499999776   3.2072355425 # cdc
   7   0.1200000419   2.9488746241 # cdo

Bond Coeffs # harmonic

   1   150.0000     2.0500 # Zn_MO-N_MOF
   2   150.0000     2.0500 # Zn_MO-O_MOF
   3   300.0000     1.5000 # N_MOF-C_MOF
   4   300.0000     1.5000 # N_MOF-N_MOF
   5   300.0000     1.5000 # O_MOF-C_MOF
   6   340.0000     1.0900 # C_MOF-H_MOF
   7   300.0000     1.5000 # C_MOF-C_MOF
   8  1140.0000     1.1620 # cdc-cdo

Angle Coeffs # harmonic

   1    50.0000    90.0000 # N_MOF-Zn_MO-N_MOF
   2    50.0000    90.0000 # N_MOF-Zn_MO-O_MOF
   3    50.0000    90.0000 # O_MOF-Zn_MO-O_MOF
   4    50.0000   120.0000 # N_MOF-N_MOF-C_MOF
   5    50.0000   120.0000 # Zn_MO-N_MOF-C_MOF
   6    50.0000   120.0000 # Zn_MO-N_MOF-N_MOF
   7    50.0000   120.0000 # C_MOF-N_MOF-C_MOF
   8    50.0000   109.5000 # Zn_MO-O_MOF-C_MOF
   9    50.0000   109.5000 # N_MOF-C_MOF-H_MOF
  10    50.0000   109.5000 # N_MOF-C_MOF-N_MOF
  11    50.0000   109.5000 # O_MOF-C_MOF-O_MOF
  12    50.0000   109.5000 # O_MOF-C_MOF-C_MOF
  13   100.0000   180.0000 # cdo-cdc-cdo

Dihedral Coeffs # harmonic

  1     0.0000   1   1 # N_MOF-Zn_MO-N_MOF-C_MOF
  2     0.0000   1   1 # N_MOF-Zn_MO-N_MOF-N_MOF
  3     0.0000   1   1 # O_MOF-Zn_MO-N_MOF-C_MOF
  4     0.0000   1   1 # O_MOF-Zn_MO-N_MOF-N_MOF
  5     0.0000   1   1 # N_MOF-Zn_MO-O_MOF-C_MOF
  6     0.0000   1   1 # O_MOF-Zn_MO-O_MOF-C_MOF
  7     0.0000   1   1 # N_MOF-N_MOF-C_MOF-H_MOF
  8     0.0000   1   1 # N_MOF-N_MOF-C_MOF-N_MOF
  9     0.0000   1   1 # Zn_MO-N_MOF-C_MOF-H_MOF
 10     0.0000   1   1 # Zn_MO-N_MOF-C_MOF-N_MOF
 11     0.0000   1   1 # Zn_MO-N_MOF-N_MOF-C_MOF
 12     0.0000   1   1 # C_MOF-N_MOF-N_MOF-C_MOF
 13     0.0000   1   1 # Zn_MO-N_MOF-N_MOF-Zn_MO
 14     0.0000   1   1 # C_MOF-N_MOF-C_MOF-N_MOF
 15     0.0000   1   1 # C_MOF-N_MOF-C_MOF-H_MOF
 16     0.0000   1   1 # Zn_MO-O_MOF-C_MOF-O_MOF
 17     0.0000   1   1 # Zn_MO-O_MOF-C_MOF-C_MOF
 18     0.0000   1   1 # O_MOF-C_MOF-C_MOF-O_MOF

Improper Coeffs # cvff

    1     0.1000  -1   2 # Zn_MO-N_MOF-N_MOF-C_MOF
    2     0.1000  -1   2 # C_MOF-N_MOF-C_MOF-Zn_MO
    3     0.1000  -1   2 # H_MOF-C_MOF-N_MOF-N_MOF
    4     0.1000  -1   2 # C_MOF-C_MOF-O_MOF-O_MOF

Atoms # full

1 1 1 0.687100 -0.241297908 0.559411885 3.187163 0 0 0 # Zn_MO
2 1 1 0.687100 7.084243433 5.406161885 0.000000 0 0 0 # Zn_MO
3 1 1 0.687100 5.013388958 9.134088115 4.265704 0 0 0 # Zn_MO
4 1 1 0.687100 -2.312152383 4.287338115 7.452867 0 0 0 # Zn_MO
5 1 2 -0.278500 -1.250846366 8.619460200 2.602847 0 0 0 # N_MOF
6 1 2 -0.278500 8.093791891 3.772710200 0.584316 0 0 0 # N_MOF
7 1 2 -0.278500 6.022937416 1.074039800 4.850020 0 0 0 # N_MOF
8 1 2 -0.278500 -3.321700841 5.920789800 6.868551 0 0 0 # N_MOF
9 1 2 -0.104900 6.393846970 8.263708750 2.958607 0 0 0 # N_MOF
10 1 2 -0.104900 0.449098554 3.416958750 0.228556 0 0 0 # N_MOF
11 1 2 -0.104900 -1.621755921 1.429791250 4.494260 0 0 0 # N_MOF
12 1 2 -0.104900 4.322992495 6.276541250 7.224311 0 0 0 # N_MOF
13 1 2 -0.335600 7.093938988 6.868814100 1.387975 0 0 0 # N_MOF
14 1 2 -0.335600 -0.250993463 2.022064100 1.799189 0 0 0 # N_MOF
15 1 2 -0.335600 -2.321847938 2.824685900 6.064892 0 0 0 # N_MOF
16 1 2 -0.335600 5.023084513 7.671435900 5.653679 0 0 0 # N_MOF
17 1 3 -0.556800 1.125604439 0.737675350 4.666595 0 0 0 # O_MOF
18 1 3 -0.556800 1.575632136 5.584425350 7.051976 0 0 0 # O_MOF
19 1 3 -0.556800 3.646486611 8.955824650 2.786272 0 0 0 # O_MOF
20 1 3 -0.556800 3.196458914 4.109074650 0.400891 0 0 0 # O_MOF
21 1 3 -0.518800 3.231290675 0.297590450 5.204073 0 0 0 # O_MOF
22 1 3 -0.518800 -0.530054100 5.144340450 6.514498 0 0 0 # O_MOF
23 1 3 -0.518800 1.540800375 9.395909550 2.248794 0 0 0 # O_MOF
24 1 3 -0.518800 5.302145150 4.549159550 0.938370 0 0 0 # O_MOF
25 1 4 0.190400 -0.880227576 7.771278950 1.668658 0 0 0 # C_MOF
26 1 4 0.190400 7.723173101 2.924528950 1.518505 0 0 0 # C_MOF
27 1 4 0.190400 5.652318626 1.922221050 5.784209 0 0 0 # C_MOF
28 1 4 0.190400 -2.951082051 6.768971050 5.934362 0 0 0 # C_MOF
29 1 5 0.093300 -0.033194327 7.798420750 1.240381 0 0 0 # H_MOF
30 1 5 0.093300 6.876139852 2.951670750 1.946782 0 0 0 # H_MOF
31 1 5 0.093300 4.805285377 1.895079250 6.212486 0 0 0 # H_MOF
32 1 5 0.093300 -2.104048802 6.741829250 5.506085 0 0 0 # H_MOF
33 1 4 0.162800 6.099965767 7.217780100 2.218081 0 0 0 # C_MOF
34 1 4 0.162800 0.742979758 2.371030100 0.969083 0 0 0 # C_MOF
35 1 4 0.162800 -1.327874717 2.475719900 5.234786 0 0 0 # C_MOF
36 1 4 0.162800 4.029111292 7.322469900 6.483784 0 0 0 # C_MOF
37 1 5 0.112600 5.270550506 6.757338850 2.266710 0 0 0 # H_MOF
38 1 5 0.112600 1.572395019 1.910588850 0.920454 0 0 0 # H_MOF
39 1 5 0.112600 -0.498459456 2.936161150 5.186157 0 0 0 # H_MOF
40 1 5 0.112600 3.199696031 7.782911150 6.532413 0 0 0 # H_MOF
41 1 4 0.548200 2.269558485 0.298559800 4.421743 0 0 0 # C_MOF
42 1 4 0.548200 0.431678089 5.145309800 7.296828 0 0 0 # C_MOF
43 1 4 0.548200 2.502532564 9.394940200 3.031124 0 0 0 # C_MOF
44 1 4 0.548200 4.340412961 4.548190200 0.156039 0 0 0 # C_MOF
45 1 1 0.687100 -4.383006859 0.559411885 11.718571 0 0 0 # Zn_MO
46 1 1 0.687100 2.942534483 5.406161885 8.531408 0 0 0 # Zn_MO
47 1 1 0.687100 0.871680008 9.134088115 12.797111 0 0 0 # Zn_MO
48 1 1 0.687100 -6.453861334 4.287338115 15.984275 0 0 0 # Zn_MO
49 1 2 -0.278500 -5.392555317 8.619460200 11.134255 0 0 0 # N_MOF
50 1 2 -0.278500 3.952082941 3.772710200 9.115724 0 0 0 # N_MOF
51 1 2 -0.278500 1.881228466 1.074039800 13.381428 0 0 0 # N_MOF
52 1 2 -0.278500 -7.463409792 5.920789800 15.399959 0 0 0 # N_MOF
53 1 2 -0.104900 2.252138020 8.263708750 11.490014 0 0 0 # N_MOF
54 1 2 -0.104900 -3.692610396 3.416958750 8.759964 0 0 0 # N_MOF
55 1 2 -0.104900 -5.763464871 1.429791250 13.025668 0 0 0 # N_MOF
56 1 2 -0.104900 0.181283545 6.276541250 15.755718 0 0 0 # N_MOF
57 1 2 -0.335600 2.952230038 6.868814100 9.919382 0 0 0 # N_MOF
58 1 2 -0.335600 -4.392702413 2.022064100 10.330596 0 0 0 # N_MOF
59 1 2 -0.335600 -6.463556888 2.824685900 14.596300 0 0 0 # N_MOF
60 1 2 -0.335600 0.881375563 7.671435900 14.185086 0 0 0 # N_MOF
61 1 3 -0.556800 -3.016104512 0.737675350 13.198002 0 0 0 # O_MOF
62 1 3 -0.556800 -2.566076814 5.584425350 15.583384 0 0 0 # O_MOF
63 1 3 -0.556800 -0.495222339 8.955824650 11.317680 0 0 0 # O_MOF
64 1 3 -0.556800 -0.945250036 4.109074650 8.932298 0 0 0 # O_MOF
65 1 3 -0.518800 -0.910418275 0.297590450 13.735481 0 0 0 # O_MOF
66 1 3 -0.518800 -4.671763050 5.144340450 15.045905 0 0 0 # O_MOF
67 1 3 -0.518800 -2.600908575 9.395909550 10.780201 0 0 0 # O_MOF
68 1 3 -0.518800 1.160436200 4.549159550 9.469777 0 0 0 # O_MOF
69 1 4 0.190400 -5.021936526 7.771278950 10.200066 0 0 0 # C_MOF
70 1 4 0.190400 3.581464151 2.924528950 10.049913 0 0 0 # C_MOF
71 1 4 0.190400 1.510609676 1.922221050 14.315617 0 0 0 # C_MOF
72 1 4 0.190400 -7.092791002 6.768971050 14.465769 0 0 0 # C_MOF
73 1 5 0.093300 -4.174903277 7.798420750 9.771789 0 0 0 # H_MOF
74 1 5 0.093300 2.734430902 2.951670750 10.478190 0 0 0 # H_MOF
75 1 5 0.093300 0.663576427 1.895079250 14.743893 0 0 0 # H_MOF
76 1 5 0.093300 -6.245757752 6.741829250 14.037493 0 0 0 # H_MOF
77 1 4 0.162800 1.958256817 7.217780100 10.749488 0 0 0 # C_MOF
78 1 4 0.162800 -3.398729193 2.371030100 9.500490 0 0 0 # C_MOF
79 1 4 0.162800 -5.469583668 2.475719900 13.766194 0 0 0 # C_MOF
80 1 4 0.162800 -0.112597658 7.322469900 15.015192 0 0 0 # C_MOF
81 1 5 0.112600 1.128841556 6.757338850 10.798117 0 0 0 # H_MOF
82 1 5 0.112600 -2.569313932 1.910588850 9.451861 0 0 0 # H_MOF
83 1 5 0.112600 -4.640168407 2.936161150 13.717565 0 0 0 # H_MOF
84 1 5 0.112600 -0.942012919 7.782911150 15.063821 0 0 0 # H_MOF
85 1 4 0.548200 -1.872150465 0.298559800 12.953151 0 0 0 # C_MOF
86 1 4 0.548200 -3.710030861 5.145309800 15.828235 0 0 0 # C_MOF
87 1 4 0.548200 -1.639176386 9.394940200 11.562531 0 0 0 # C_MOF
88 1 4 0.548200 0.198704010 4.548190200 8.687447 0 0 0 # C_MOF
89 1 1 0.687100 -8.524715809 0.559411885 20.249978 0 0 0 # Zn_MO
90 1 1 0.687100 -1.199174467 5.406161885 17.062815 0 0 0 # Zn_MO
91 1 1 0.687100 -3.270028942 9.134088115 21.328519 0 0 0 # Zn_MO
92 1 1 0.687100 -10.595570284 4.287338115 24.515682 0 0 0 # Zn_MO
93 1 2 -0.278500 -9.534264267 8.619460200 19.665662 0 0 0 # N_MOF
94 1 2 -0.278500 -0.189626009 3.772710200 17.647131 0 0 0 # N_MOF
95 1 2 -0.278500 -2.260480484 1.074039800 21.912835 0 0 0 # N_MOF
96 1 2 -0.278500 -11.605118742 5.920789800 23.931366 0 0 0 # N_MOF
97 1 2 -0.104900 -1.889570930 8.263708750 20.021422 0 0 0 # N_MOF
98 1 2 -0.104900 -7.834319346 3.416958750 17.291372 0 0 0 # N_MOF
99 1 2 -0.104900 -9.905173821 1.429791250 21.557075 0 0 0 # N_MOF
100 1 2 -0.104900 -3.960425405 6.276541250 24.287126 0 0 0 # N_MOF
101 1 2 -0.335600 -1.189478912 6.868814100 18.450790 0 0 0 # N_MOF
102 1 2 -0.335600 -8.534411364 2.022064100 18.862004 0 0 0 # N_MOF
103 1 2 -0.335600 -10.605265839 2.824685900 23.127708 0 0 0 # N_MOF
104 1 2 -0.335600 -3.260333387 7.671435900 22.716494 0 0 0 # N_MOF
105 1 3 -0.556800 -7.157813462 0.737675350 21.729410 0 0 0 # O_MOF
106 1 3 -0.556800 -6.707785764 5.584425350 24.114791 0 0 0 # O_MOF
107 1 3 -0.556800 -4.636931289 8.955824650 19.849088 0 0 0 # O_MOF
108 1 3 -0.556800 -5.086958987 4.109074650 17.463706 0 0 0 # O_MOF
109 1 3 -0.518800 -5.052127226 0.297590450 22.266889 0 0 0 # O_MOF
110 1 3 -0.518800 -8.813472000 5.144340450 23.577313 0 0 0 # O_MOF
111 1 3 -0.518800 -6.742617525 9.395909550 19.311609 0 0 0 # O_MOF
112 1 3 -0.518800 -2.981272751 4.549159550 18.001185 0 0 0 # O_MOF
113 1 4 0.190400 -9.163645477 7.771278950 18.731473 0 0 0 # C_MOF
114 1 4 0.190400 -0.560244799 2.924528950 18.581320 0 0 0 # C_MOF
115 1 4 0.190400 -2.631099274 1.922221050 22.847024 0 0 0 # C_MOF
116 1 4 0.190400 -11.234499952 6.768971050 22.997177 0 0 0 # C_MOF
117 1 5 0.093300 -8.316612227 7.798420750 18.303197 0 0 0 # H_MOF
118 1 5 0.093300 -1.407278048 2.951670750 19.009597 0 0 0 # H_MOF
119 1 5 0.093300 -3.478132524 1.895079250 23.275301 0 0 0 # H_MOF
120 1 5 0.093300 -10.387466702 6.741829250 22.568900 0 0 0 # H_MOF
121 1 4 0.162800 -2.183452133 7.217780100 19.280896 0 0 0 # C_MOF
122 1 4 0.162800 -7.540438143 2.371030100 18.031898 0 0 0 # C_MOF
123 1 4 0.162800 -9.611292618 2.475719900 22.297602 0 0 0 # C_MOF
124 1 4 0.162800 -4.254306608 7.322469900 23.546600 0 0 0 # C_MOF
125 1 5 0.112600 -3.012867394 6.757338850 19.329525 0 0 0 # H_MOF
126 1 5 0.112600 -6.711022882 1.910588850 17.983269 0 0 0 # H_MOF
127 1 5 0.112600 -8.781877357 2.936161150 22.248973 0 0 0 # H_MOF
128 1 5 0.112600 -5.083721869 7.782911150 23.595229 0 0 0 # H_MOF
129 1 4 0.548200 -6.013859415 0.298559800 21.484558 0 0 0 # C_MOF
130 1 4 0.548200 -7.851739811 5.145309800 24.359643 0 0 0 # C_MOF
131 1 4 0.548200 -5.780885336 9.394940200 20.093939 0 0 0 # C_MOF
132 1 4 0.548200 -3.943004940 4.548190200 17.218855 0 0 0 # C_MOF
133 1 1 0.687100 -0.241297908 10.252911885 3.187163 0 0 0 # Zn_MO
134 1 1 0.687100 7.084243433 15.099661885 0.000000 0 0 0 # Zn_MO
135 1 1 0.687100 5.013388958 18.827588115 4.265704 0 0 0 # Zn_MO
136 1 1 0.687100 -2.312152383 13.980838115 7.452867 0 0 0 # Zn_MO
137 1 2 -0.278500 -1.250846366 18.312960200 2.602847 0 0 0 # N_MOF
138 1 2 -0.278500 8.093791891 13.466210200 0.584316 0 0 0 # N_MOF
139 1 2 -0.278500 6.022937416 10.767539800 4.850020 0 0 0 # N_MOF
140 1 2 -0.278500 -3.321700841 15.614289800 6.868551 0 0 0 # N_MOF
141 1 2 -0.104900 6.393846970 17.957208750 2.958607 0 0 0 # N_MOF
142 1 2 -0.104900 0.449098554 13.110458750 0.228556 0 0 0 # N_MOF
143 1 2 -0.104900 -1.621755921 11.123291250 4.494260 0 0 0 # N_MOF
144 1 2 -0.104900 4.322992495 15.970041250 7.224311 0 0 0 # N_MOF
145 1 2 -0.335600 7.093938988 16.562314100 1.387975 0 0 0 # N_MOF
146 1 2 -0.335600 -0.250993463 11.715564100 1.799189 0 0 0 # N_MOF
147 1 2 -0.335600 -2.321847938 12.518185900 6.064892 0 0 0 # N_MOF
148 1 2 -0.335600 5.023084513 17.364935900 5.653679 0 0 0 # N_MOF
149 1 3 -0.556800 1.125604439 10.431175350 4.666595 0 0 0 # O_MOF
150 1 3 -0.556800 1.575632136 15.277925350 7.051976 0 0 0 # O_MOF
151 1 3 -0.556800 3.646486611 18.649324650 2.786272 0 0 0 # O_MOF
152 1 3 -0.556800 3.196458914 13.802574650 0.400891 0 0 0 # O_MOF
153 1 3 -0.518800 3.231290675 9.991090450 5.204073 0 0 0 # O_MOF
154 1 3 -0.518800 -0.530054100 14.837840450 6.514498 0 0 0 # O_MOF
155 1 3 -0.518800 1.540800375 19.089409550 2.248794 0 0 0 # O_MOF
156 1 3 -0.518800 5.302145150 14.242659550 0.938370 0 0 0 # O_MOF
157 1 4 0.190400 -0.880227576 17.464778950 1.668658 0 0 0 # C_MOF
158 1 4 0.190400 7.723173101 12.618028950 1.518505 0 0 0 # C_MOF
159 1 4 0.190400 5.652318626 11.615721050 5.784209 0 0 0 # C_MOF
160 1 4 0.190400 -2.951082051 16.462471050 5.934362 0 0 0 # C_MOF
161 1 5 0.093300 -0.033194327 17.491920750 1.240381 0 0 0 # H_MOF
162 1 5 0.093300 6.876139852 12.645170750 1.946782 0 0 0 # H_MOF
163 1 5 0.093300 4.805285377 11.588579250 6.212486 0 0 0 # H_MOF
164 1 5 0.093300 -2.104048802 16.435329250 5.506085 0 0 0 # H_MOF
165 1 4 0.162800 6.099965767 16.911280100 2.218081 0 0 0 # C_MOF
166 1 4 0.162800 0.742979758 12.064530100 0.969083 0 0 0 # C_MOF
167 1 4 0.162800 -1.327874717 12.169219900 5.234786 0 0 0 # C_MOF
168 1 4 0.162800 4.029111292 17.015969900 6.483784 0 0 0 # C_MOF
169 1 5 0.112600 5.270550506 16.450838850 2.266710 0 0 0 # H_MOF
170 1 5 0.112600 1.572395019 11.604088850 0.920454 0 0 0 # H_MOF
171 1 5 0.112600 -0.498459456 12.629661150 5.186157 0 0 0 # H_MOF
172 1 5 0.112600 3.199696031 17.476411150 6.532413 0 0 0 # H_MOF
173 1 4 0.548200 2.269558485 9.992059800 4.421743 0 0 0 # C_MOF
174 1 4 0.548200 0.431678089 14.838809800 7.296828 0 0 0 # C_MOF
175 1 4 0.548200 2.502532564 19.088440200 3.031124 0 0 0 # C_MOF
176 1 4 0.548200 4.340412961 14.241690200 0.156039 0 0 0 # C_MOF
177 1 1 0.687100 -4.383006859 10.252911885 11.718571 0 0 0 # Zn_MO
178 1 1 0.687100 2.942534483 15.099661885 8.531408 0 0 0 # Zn_MO
179 1 1 0.687100 0.871680008 18.827588115 12.797111 0 0 0 # Zn_MO
180 1 1 0.687100 -6.453861334 13.980838115 15.984275 0 0 0 # Zn_MO
181 1 2 -0.278500 -5.392555317 18.312960200 11.134255 0 0 0 # N_MOF
182 1 2 -0.278500 3.952082941 13.466210200 9.115724 0 0 0 # N_MOF
183 1 2 -0.278500 1.881228466 10.767539800 13.381428 0 0 0 # N_MOF
184 1 2 -0.278500 -7.463409792 15.614289800 15.399959 0 0 0 # N_MOF
185 1 2 -0.104900 2.252138020 17.957208750 11.490014 0 0 0 # N_MOF
186 1 2 -0.104900 -3.692610396 13.110458750 8.759964 0 0 0 # N_MOF
187 1 2 -0.104900 -5.763464871 11.123291250 13.025668 0 0 0 # N_MOF
188 1 2 -0.104900 0.181283545 15.970041250 15.755718 0 0 0 # N_MOF
189 1 2 -0.335600 2.952230038 16.562314100 9.919382 0 0 0 # N_MOF
190 1 2 -0.335600 -4.392702413 11.715564100 10.330596 0 0 0 # N_MOF
191 1 2 -0.335600 -6.463556888 12.518185900 14.596300 0 0 0 # N_MOF
192 1 2 -0.335600 0.881375563 17.364935900 14.185086 0 0 0 # N_MOF
193 1 3 -0.556800 -3.016104512 10.431175350 13.198002 0 0 0 # O_MOF
194 1 3 -0.556800 -2.566076814 15.277925350 15.583384 0 0 0 # O_MOF
195 1 3 -0.556800 -0.495222339 18.649324650 11.317680 0 0 0 # O_MOF
196 1 3 -0.556800 -0.945250036 13.802574650 8.932298 0 0 0 # O_MOF
197 1 3 -0.518800 -0.910418275 9.991090450 13.735481 0 0 0 # O_MOF
198 1 3 -0.518800 -4.671763050 14.837840450 15.045905 0 0 0 # O_MOF
199 1 3 -0.518800 -2.600908575 19.089409550 10.780201 0 0 0 # O_MOF
200 1 3 -0.518800 1.160436200 14.242659550 9.469777 0 0 0 # O_MOF
201 1 4 0.190400 -5.021936526 17.464778950 10.200066 0 0 0 # C_MOF
202 1 4 0.190400 3.581464151 12.618028950 10.049913 0 0 0 # C_MOF
203 1 4 0.190400 1.510609676 11.615721050 14.315617 0 0 0 # C_MOF
204 1 4 0.190400 -7.092791002 16.462471050 14.465769 0 0 0 # C_MOF
205 1 5 0.093300 -4.174903277 17.491920750 9.771789 0 0 0 # H_MOF
206 1 5 0.093300 2.734430902 12.645170750 10.478190 0 0 0 # H_MOF
207 1 5 0.093300 0.663576427 11.588579250 14.743893 0 0 0 # H_MOF
208 1 5 0.093300 -6.245757752 16.435329250 14.037493 0 0 0 # H_MOF
209 1 4 0.162800 1.958256817 16.911280100 10.749488 0 0 0 # C_MOF
210 1 4 0.162800 -3.398729193 12.064530100 9.500490 0 0 0 # C_MOF
211 1 4 0.162800 -5.469583668 12.169219900 13.766194 0 0 0 # C_MOF
212 1 4 0.162800 -0.112597658 17.015969900 15.015192 0 0 0 # C_MOF
213 1 5 0.112600 1.128841556 16.450838850 10.798117 0 0 0 # H_MOF
214 1 5 0.112600 -2.569313932 11.604088850 9.451861 0 0 0 # H_MOF
215 1 5 0.112600 -4.640168407 12.629661150 13.717565 0 0 0 # H_MOF
216 1 5 0.112600 -0.942012919 17.476411150 15.063821 0 0 0 # H_MOF
217 1 4 0.548200 -1.872150465 9.992059800 12.953151 0 0 0 # C_MOF
218 1 4 0.548200 -3.710030861 14.838809800 15.828235 0 0 0 # C_MOF
219 1 4 0.548200 -1.639176386 19.088440200 11.562531 0 0 0 # C_MOF
220 1 4 0.548200 0.198704010 14.241690200 8.687447 0 0 0 # C_MOF
221 1 1 0.687100 -8.524715809 10.252911885 20.249978 0 0 0 # Zn_MO
222 1 1 0.687100 -1.199174467 15.099661885 17.062815 0 0 0 # Zn_MO
223 1 1 0.687100 -3.270028942 18.827588115 21.328519 0 0 0 # Zn_MO
224 1 1 0.687100 -10.595570284 13.980838115 24.515682 0 0 0 # Zn_MO
225 1 2 -0.278500 -9.534264267 18.312960200 19.665662 0 0 0 # N_MOF
226 1 2 -0.278500 -0.189626009 13.466210200 17.647131 0 0 0 # N_MOF
227 1 2 -0.278500 -2.260480484 10.767539800 21.912835 0 0 0 # N_MOF
228 1 2 -0.278500 -11.605118742 15.614289800 23.931366 0 0 0 # N_MOF
229 1 2 -0.104900 -1.889570930 17.957208750 20.021422 0 0 0 # N_MOF
230 1 2 -0.104900 -7.834319346 13.110458750 17.291372 0 0 0 # N_MOF
231 1 2 -0.104900 -9.905173821 11.123291250 21.557075 0 0 0 # N_MOF
232 1 2 -0.104900 -3.960425405 15.970041250 24.287126 0 0 0 # N_MOF
233 1 2 -0.335600 -1.189478912 16.562314100 18.450790 0 0 0 # N_MOF
234 1 2 -0.335600 -8.534411364 11.715564100 18.862004 0 0 0 # N_MOF
235 1 2 -0.335600 -10.605265839 12.518185900 23.127708 0 0 0 # N_MOF
236 1 2 -0.335600 -3.260333387 17.364935900 22.716494 0 0 0 # N_MOF
237 1 3 -0.556800 -7.157813462 10.431175350 21.729410 0 0 0 # O_MOF
238 1 3 -0.556800 -6.707785764 15.277925350 24.114791 0 0 0 # O_MOF
239 1 3 -0.556800 -4.636931289 18.649324650 19.849088 0 0 0 # O_MOF
240 1 3 -0.556800 -5.086958987 13.802574650 17.463706 0 0 0 # O_MOF
241 1 3 -0.518800 -5.052127226 9.991090450 22.266889 0 0 0 # O_MOF
242 1 3 -0.518800 -8.813472000 14.837840450 23.577313 0 0 0 # O_MOF
243 1 3 -0.518800 -6.742617525 19.089409550 19.311609 0 0 0 # O_MOF
244 1 3 -0.518800 -2.981272751 14.242659550 18.001185 0 0 0 # O_MOF
245 1 4 0.190400 -9.163645477 17.464778950 18.731473 0 0 0 # C_MOF
246 1 4 0.190400 -0.560244799 12.618028950 18.581320 0 0 0 # C_MOF
247 1 4 0.190400 -2.631099274 11.615721050 22.847024 0 0 0 # C_MOF
248 1 4 0.190400 -11.234499952 16.462471050 22.997177 0 0 0 # C_MOF
249 1 5 0.093300 -8.316612227 17.491920750 18.303197 0 0 0 # H_MOF
250 1 5 0.093300 -1.407278048 12.645170750 19.009597 0 0 0 # H_MOF
251 1 5 0.093300 -3.478132524 11.588579250 23.275301 0 0 0 # H_MOF
252 1 5 0.093300 -10.387466702 16.435329250 22.568900 0 0 0 # H_MOF
253 1 4 0.162800 -2.183452133 16.911280100 19.280896 0 0 0 # C_MOF
254 1 4 0.162800 -7.540438143 12.064530100 18.031898 0 0 0 # C_MOF
255 1 4 0.162800 -9.611292618 12.169219900 22.297602 0 0 0 # C_MOF
256 1 4 0.162800 -4.254306608 17.015969900 23.546600 0 0 0 # C_MOF
257 1 5 0.112600 -3.012867394 16.450838850 19.329525 0 0 0 # H_MOF
258 1 5 0.112600 -6.711022882 11.604088850 17.983269 0 0 0 # H_MOF
259 1 5 0.112600 -8.781877357 12.629661150 22.248973 0 0 0 # H_MOF
260 1 5 0.112600 -5.083721869 17.476411150 23.595229 0 0 0 # H_MOF
261 1 4 0.548200 -6.013859415 9.992059800 21.484558 0 0 0 # C_MOF
262 1 4 0.548200 -7.851739811 14.838809800 24.359643 0 0 0 # C_MOF
263 1 4 0.548200 -5.780885336 19.088440200 20.093939 0 0 0 # C_MOF
264 1 4 0.548200 -3.943004940 14.241690200 17.218855 0 0 0 # C_MOF
265 1 1 0.687100 -0.241297908 19.946411885 3.187163 0 0 0 # Zn_MO
266 1 1 0.687100 7.084243433 24.793161885 0.000000 0 0 0 # Zn_MO
267 1 1 0.687100 5.013388958 28.521088115 4.265704 0 0 0 # Zn_MO
268 1 1 0.687100 -2.312152383 23.674338115 7.452867 0 0 0 # Zn_MO
269 1 2 -0.278500 -1.250846366 28.006460200 2.602847 0 0 0 # N_MOF
270 1 2 -0.278500 8.093791891 23.159710200 0.584316 0 0 0 # N_MOF
271 1 2 -0.278500 6.022937416 20.461039800 4.850020 0 0 0 # N_MOF
272 1 2 -0.278500 -3.321700841 25.307789800 6.868551 0 0 0 # N_MOF
273 1 2 -0.104900 6.393846970 27.650708750 2.958607 0 0 0 # N_MOF
274 1 2 -0.104900 0.449098554 22.803958750 0.228556 0 0 0 # N_MOF
275 1 2 -0.104900 -1.621755921 20.816791250 4.494260 0 0 0 # N_MOF
276 1 2 -0.104900 4.322992495 25.663541250 7.224311 0 0 0 # N_MOF
277 1 2 -0.335600 7.093938988 26.255814100 1.387975 0 0 0 # N_MOF
278 1 2 -0.335600 -0.250993463 21.409064100 1.799189 0 0 0 # N_MOF
279 1 2 -0.335600 -2.321847938 22.211685900 6.064892 0 0 0 # N_MOF
280 1 2 -0.335600 5.023084513 27.058435900 5.653679 0 0 0 # N_MOF
281 1 3 -0.556800 1.125604439 20.124675350 4.666595 0 0 0 # O_MOF
282 1 3 -0.556800 1.575632136 24.971425350 7.051976 0 0 0 # O_MOF
283 1 3 -0.556800 3.646486611 28.342824650 2.786272 0 0 0 # O_MOF
284 1 3 -0.556800 3.196458914 23.496074650 0.400891 0 0 0 # O_MOF
285 1 3 -0.518800 3.231290675 19.684590450 5.204073 0 0 0 # O_MOF
286 1 3 -0.518800 -0.530054100 24.531340450 6.514498 0 0 0 # O_MOF
287 1 3 -0.518800 1.540800375 28.782909550 2.248794 0 0 0 # O_MOF
288 1 3 -0.518800 5.302145150 23.936159550 0.938370 0 0 0 # O_MOF
289 1 4 0.190400 -0.880227576 27.158278950 1.668658 0 0 0 # C_MOF
290 1 4 0.190400 7.723173101 22.311528950 1.518505 0 0 0 # C_MOF
291 1 4 0.190400 5.652318626 21.309221050 5.784209 0 0 0 # C_MOF
292 1 4 0.190400 -2.951082051 26.155971050 5.934362 0 0 0 # C_MOF
293 1 5 0.093300 -0.033194327 27.185420750 1.240381 0 0 0 # H_MOF
294 1 5 0.093300 6.876139852 22.338670750 1.946782 0 0 0 # H_MOF
295 1 5 0.093300 4.805285377 21.282079250 6.212486 0 0 0 # H_MOF
296 1 5 0.093300 -2.104048802 26.128829250 5.506085 0 0 0 # H_MOF
297 1 4 0.162800 6.099965767 26.604780100 2.218081 0 0 0 # C_MOF
298 1 4 0.162800 0.742979758 21.758030100 0.969083 0 0 0 # C_MOF
299 1 4 0.162800 -1.327874717 21.862719900 5.234786 0 0 0 # C_MOF
300 1 4 0.162800 4.029111292 26.709469900 6.483784 0 0 0 # C_MOF
301 1 5 0.112600 5.270550506 26.144338850 2.266710 0 0 0 # H_MOF
302 1 5 0.112600 1.572395019 21.297588850 0.920454 0 0 0 # H_MOF
303 1 5 0.112600 -0.498459456 22.323161150 5.186157 0 0 0 # H_MOF
304 1 5 0.112600 3.199696031 27.169911150 6.532413 0 0 0 # H_MOF
305 1 4 0.548200 2.269558485 19.685559800 4.421743 0 0 0 # C_MOF
306 1 4 0.548200 0.431678089 24.532309800 7.296828 0 0 0 # C_MOF
307 1 4 0.548200 2.502532564 28.781940200 3.031124 0 0 0 # C_MOF
308 1 4 0.548200 4.340412961 23.935190200 0.156039 0 0 0 # C_MOF
309 1 1 0.687100 -4.383006859 19.946411885 11.718571 0 0 0 # Zn_MO
310 1 1 0.687100 2.942534483 24.793161885 8.531408 0 0 0 # Zn_MO
311 1 1 0.687100 0.871680008 28.521088115 12.797111 0 0 0 # Zn_MO
312 1 1 0.687100 -6.453861334 23.674338115 15.984275 0 0 0 # Zn_MO
313 1 2 -0.278500 -5.392555317 28.006460200 11.134255 0 0 0 # N_MOF
314 1 2 -0.278500 3.952082941 23.159710200 9.115724 0 0 0 # N_MOF
315 1 2 -0.278500 1.881228466 20.461039800 13.381428 0 0 0 # N_MOF
316 1 2 -0.278500 -7.463409792 25.307789800 15.399959 0 0 0 # N_MOF
317 1 2 -0.104900 2.252138020 27.650708750 11.490014 0 0 0 # N_MOF
318 1 2 -0.104900 -3.692610396 22.803958750 8.759964 0 0 0 # N_MOF
319 1 2 -0.104900 -5.763464871 20.816791250 13.025668 0 0 0 # N_MOF
320 1 2 -0.104900 0.181283545 25.663541250 15.755718 0 0 0 # N_MOF
321 1 2 -0.335600 2.952230038 26.255814100 9.919382 0 0 0 # N_MOF
322 1 2 -0.335600 -4.392702413 21.409064100 10.330596 0 0 0 # N_MOF
323 1 2 -0.335600 -6.463556888 22.211685900 14.596300 0 0 0 # N_MOF
324 1 2 -0.335600 0.881375563 27.058435900 14.185086 0 0 0 # N_MOF
325 1 3 -0.556800 -3.016104512 20.124675350 13.198002 0 0 0 # O_MOF
326 1 3 -0.556800 -2.566076814 24.971425350 15.583384 0 0 0 # O_MOF
327 1 3 -0.556800 -0.495222339 28.342824650 11.317680 0 0 0 # O_MOF
328 1 3 -0.556800 -0.945250036 23.496074650 8.932298 0 0 0 # O_MOF
329 1 3 -0.518800 -0.910418275 19.684590450 13.735481 0 0 0 # O_MOF
330 1 3 -0.518800 -4.671763050 24.531340450 15.045905 0 0 0 # O_MOF
331 1 3 -0.518800 -2.600908575 28.782909550 10.780201 0 0 0 # O_MOF
332 1 3 -0.518800 1.160436200 23.936159550 9.469777 0 0 0 # O_MOF
333 1 4 0.190400 -5.021936526 27.158278950 10.200066 0 0 0 # C_MOF
334 1 4 0.190400 3.581464151 22.311528950 10.049913 0 0 0 # C_MOF
335 1 4 0.190400 1.510609676 21.309221050 14.315617 0 0 0 # C_MOF
336 1 4 0.190400 -7.092791002 26.155971050 14.465769 0 0 0 # C_MOF
337 1 5 0.093300 -4.174903277 27.185420750 9.771789 0 0 0 # H_MOF
338 1 5 0.093300 2.734430902 22.338670750 10.478190 0 0 0 # H_MOF
339 1 5 0.093300 0.663576427 21.282079250 14.743893 0 0 0 # H_MOF
340 1 5 0.093300 -6.245757752 26.128829250 14.037493 0 0 0 # H_MOF
341 1 4 0.162800 1.958256817 26.604780100 10.749488 0 0 0 # C_MOF
342 1 4 0.162800 -3.398729193 21.758030100 9.500490 0 0 0 # C_MOF
343 1 4 0.162800 -5.469583668 21.862719900 13.766194 0 0 0 # C_MOF
344 1 4 0.162800 -0.112597658 26.709469900 15.015192 0 0 0 # C_MOF
345 1 5 0.112600 1.128841556 26.144338850 10.798117 0 0 0 # H_MOF
346 1 5 0.112600 -2.569313932 21.297588850 9.451861 0 0 0 # H_MOF
347 1 5 0.112600 -4.640168407 22.323161150 13.717565 0 0 0 # H_MOF
348 1 5 0.112600 -0.942012919 27.169911150 15.063821 0 0 0 # H_MOF
349 1 4 0.548200 -1.872150465 19.685559800 12.953151 0 0 0 # C_MOF
350 1 4 0.548200 -3.710030861 24.532309800 15.828235 0 0 0 # C_MOF
351 1 4 0.548200 -1.639176386 28.781940200 11.562531 0 0 0 # C_MOF
352 1 4 0.548200 0.198704010 23.935190200 8.687447 0 0 0 # C_MOF
353 1 1 0.687100 -8.524715809 19.946411885 20.249978 0 0 0 # Zn_MO
354 1 1 0.687100 -1.199174467 24.793161885 17.062815 0 0 0 # Zn_MO
355 1 1 0.687100 -3.270028942 28.521088115 21.328519 0 0 0 # Zn_MO
356 1 1 0.687100 -10.595570284 23.674338115 24.515682 0 0 0 # Zn_MO
357 1 2 -0.278500 -9.534264267 28.006460200 19.665662 0 0 0 # N_MOF
358 1 2 -0.278500 -0.189626009 23.159710200 17.647131 0 0 0 # N_MOF
359 1 2 -0.278500 -2.260480484 20.461039800 21.912835 0 0 0 # N_MOF
360 1 2 -0.278500 -11.605118742 25.307789800 23.931366 0 0 0 # N_MOF
361 1 2 -0.104900 -1.889570930 27.650708750 20.021422 0 0 0 # N_MOF
362 1 2 -0.104900 -7.834319346 22.803958750 17.291372 0 0 0 # N_MOF
363 1 2 -0.104900 -9.905173821 20.816791250 21.557075 0 0 0 # N_MOF
364 1 2 -0.104900 -3.960425405 25.663541250 24.287126 0 0 0 # N_MOF
365 1 2 -0.335600 -1.189478912 26.255814100 18.450790 0 0 0 # N_MOF
366 1 2 -0.335600 -8.534411364 21.409064100 18.862004 0 0 0 # N_MOF
367 1 2 -0.335600 -10.605265839 22.211685900 23.127708 0 0 0 # N_MOF
368 1 2 -0.335600 -3.260333387 27.058435900 22.716494 0 0 0 # N_MOF
369 1 3 -0.556800 -7.157813462 20.124675350 21.729410 0 0 0 # O_MOF
370 1 3 -0.556800 -6.707785764 24.971425350 24.114791 0 0 0 # O_MOF
371 1 3 -0.556800 -4.636931289 28.342824650 19.849088 0 0 0 # O_MOF
372 1 3 -0.556800 -5.086958987 23.496074650 17.463706 0 0 0 # O_MOF
373 1 3 -0.518800 -5.052127226 19.684590450 22.266889 0 0 0 # O_MOF
374 1 3 -0.518800 -8.813472000 24.531340450 23.577313 0 0 0 # O_MOF
375 1 3 -0.518800 -6.742617525 28.782909550 19.311609 0 0 0 # O_MOF
376 1 3 -0.518800 -2.981272751 23.936159550 18.001185 0 0 0 # O_MOF
377 1 4 0.190400 -9.163645477 27.158278950 18.731473 0 0 0 # C_MOF
378 1 4 0.190400 -0.560244799 22.311528950 18.581320 0 0 0 # C_MOF
379 1 4 0.190400 -2.631099274 21.309221050 22.847024 0 0 0 # C_MOF
380 1 4 0.190400 -11.234499952 26.155971050 22.997177 0 0 0 # C_MOF
381 1 5 0.093300 -8.316612227 27.185420750 18.303197 0 0 0 # H_MOF
382 1 5 0.093300 -1.407278048 22.338670750 19.009597 0 0 0 # H_MOF
383 1 5 0.093300 -3.478132524 21.282079250 23.275301 0 0 0 # H_MOF
384 1 5 0.093300 -10.387466702 26.128829250 22.568900 0 0 0 # H_MOF
385 1 4 0.162800 -2.183452133 26.604780100 19.280896 0 0 0 # C_MOF
386 1 4 0.162800 -7.540438143 21.758030100 18.031898 0 0 0 # C_MOF
387 1 4 0.162800 -9.611292618 21.862719900 22.297602 0 0 0 # C_MOF
388 1 4 0.162800 -4.254306608 26.709469900 23.546600 0 0 0 # C_MOF
389 1 5 0.112600 -3.012867394 26.144338850 19.329525 0 0 0 # H_MOF
390 1 5 0.112600 -6.711022882 21.297588850 17.983269 0 0 0 # H_MOF
391 1 5 0.112600 -8.781877357 22.323161150 22.248973 0 0 0 # H_MOF
392 1 5 0.112600 -5.083721869 27.169911150 23.595229 0 0 0 # H_MOF
393 1 4 0.548200 -6.013859415 19.685559800 21.484558 0 0 0 # C_MOF
394 1 4 0.548200 -7.851739811 24.532309800 24.359643 0 0 0 # C_MOF
395 1 4 0.548200 -5.780885336 28.781940200 20.093939 0 0 0 # C_MOF
396 1 4 0.548200 -3.943004940 23.935190200 17.218855 0 0 0 # C_MOF
397 1 1 0.687100 8.672502092 0.559411885 3.187163 0 0 0 # Zn_MO
398 1 1 0.687100 15.998043433 5.406161885 0.000000 0 0 0 # Zn_MO
399 1 1 0.687100 13.927188958 9.134088115 4.265704 0 0 0 # Zn_MO
400 1 1 0.687100 6.601647617 4.287338115 7.452867 0 0 0 # Zn_MO
401 1 2 -0.278500 7.662953634 8.619460200 2.602847 0 0 0 # N_MOF
402 1 2 -0.278500 17.007591891 3.772710200 0.584316 0 0 0 # N_MOF
403 1 2 -0.278500 14.936737416 1.074039800 4.850020 0 0 0 # N_MOF
404 1 2 -0.278500 5.592099159 5.920789800 6.868551 0 0 0 # N_MOF
405 1 2 -0.104900 15.307646970 8.263708750 2.958607 0 0 0 # N_MOF
406 1 2 -0.104900 9.362898554 3.416958750 0.228556 0 0 0 # N_MOF
407 1 2 -0.104900 7.292044079 1.429791250 4.494260 0 0 0 # N_MOF
408 1 2 -0.104900 13.236792495 6.276541250 7.224311 0 0 0 # N_MOF
409 1 2 -0.335600 16.007738988 6.868814100 1.387975 0 0 0 # N_MOF
410 1 2 -0.335600 8.662806537 2.022064100 1.799189 0 0 0 # N_MOF
411 1 2 -0.335600 6.591952062 2.824685900 6.064892 0 0 0 # N_MOF
412 1 2 -0.335600 13.936884513 7.671435900 5.653679 0 0 0 # N_MOF
413 1 3 -0.556800 10.039404439 0.737675350 4.666595 0 0 0 # O_MOF
414 1 3 -0.556800 10.489432136 5.584425350 7.051976 0 0 0 # O_MOF
415 1 3 -0.556800 12.560286611 8.955824650 2.786272 0 0 0 # O_MOF
416 1 3 -0.556800 12.110258914 4.109074650 0.400891 0 0 0 # O_MOF
417 1 3 -0.518800 12.145090675 0.297590450 5.204073 0 0 0 # O_MOF
418 1 3 -0.518800 8.383745900 5.144340450 6.514498 0 0 0 # O_MOF
419 1 3 -0.518800 10.454600375 9.395909550 2.248794 0 0 0 # O_MOF
420 1 3 -0.518800 14.215945150 4.549159550 0.938370 0 0 0 # O_MOF
421 1 4 0.190400 8.033572424 7.771278950 1.668658 0 0 0 # C_MOF
422 1 4 0.190400 16.636973101 2.924528950 1.518505 0 0 0 # C_MOF
423 1 4 0.190400 14.566118626 1.922221050 5.784209 0 0 0 # C_MOF
424 1 4 0.190400 5.962717949 6.768971050 5.934362 0 0 0 # C_MOF
425 1 5 0.093300 8.880605673 7.798420750 1.240381 0 0 0 # H_MOF
426 1 5 0.093300 15.789939852 2.951670750 1.946782 0 0 0 # H_MOF
427 1 5 0.093300 13.719085377 1.895079250 6.212486 0 0 0 # H_MOF
428 1 5 0.093300 6.809751198 6.741829250 5.506085 0 0 0 # H_MOF
429 1 4 0.162800 15.013765767 7.217780100 2.218081 0 0 0 # C_MOF
430 1 4 0.162800 9.656779758 2.371030100 0.969083 0 0 0 # C_MOF
431 1 4 0.162800 7.585925283 2.475719900 5.234786 0 0 0 # C_MOF
432 1 4 0.162800 12.942911292 7.322469900 6.483784 0 0 0 # C_MOF
433 1 5 0.112600 14.184350506 6.757338850 2.266710 0 0 0 # H_MOF
434 1 5 0.112600 10.486195019 1.910588850 0.920454 0 0 0 # H_MOF
435 1 5 0.112600 8.415340544 2.936161150 5.186157 0 0 0 # H_MOF
436 1 5 0.112600 12.113496031 7.782911150 6.532413 0 0 0 # H_MOF
437 1 4 0.548200 11.183358485 0.298559800 4.421743 0 0 0 # C_MOF
438 1 4 0.548200 9.345478089 5.145309800 7.296828 0 0 0 # C_MOF
439 1 4 0.548200 11.416332564 9.394940200 3.031124 0 0 0 # C_MOF
440 1 4 0.548200 13.254212961 4.548190200 0.156039 0 0 0 # C_MOF
441 1 1 0.687100 4.530793141 0.559411885 11.718571 0 0 0 # Zn_MO
442 1 1 0.687100 11.856334483 5.406161885 8.531408 0 0 0 # Zn_MO
443 1 1 0.687100 9.785480008 9.134088115 12.797111 0 0 0 # Zn_MO
444 1 1 0.687100 2.459938666 4.287338115 15.984275 0 0 0 # Zn_MO
445 1 2 -0.278500 3.521244683 8.619460200 11.134255 0 0 0 # N_MOF
446 1 2 -0.278500 12.865882941 3.772710200 9.115724 0 0 0 # N_MOF
447 1 2 -0.278500 10.795028466 1.074039800 13.381428 0 0 0 # N_MOF
448 1 2 -0.278500 1.450390208 5.920789800 15.399959 0 0 0 # N_MOF
449 1 2 -0.104900 11.165938020 8.263708750 11.490014 0 0 0 # N_MOF
450 1 2 -0.104900 5.221189604 3.416958750 8.759964 0 0 0 # N_MOF
451 1 2 -0.104900 3.150335129 1.429791250 13.025668 0 0 0 # N_MOF
452 1 2 -0.104900 9.095083545 6.276541250 15.755718 0 0 0 # N_MOF
453 1 2 -0.335600 11.866030038 6.868814100 9.919382 0 0 0 # N_MOF
454 1 2 -0.335600 4.521097587 2.022064100 10.330596 0 0 0 # N_MOF
455 1 2 -0.335600 2.450243112 2.824685900 14.596300 0 0 0 # N_MOF
456 1 2 -0.335600 9.795175563 7.671435900 14.185086 0 0 0 # N_MOF
457 1 3 -0.556800 5.897695488 0.737675350 13.198002 0 0 0 # O_MOF
458 1 3 -0.556800 6.347723186 5.584425350 15.583384 0 0 0 # O_MOF
459 1 3 -0.556800 8.418577661 8.955824650 11.317680 0 0 0 # O_MOF
460 1 3 -0.556800 7.968549964 4.109074650 8.932298 0 0 0 # O_MOF
461 1 3 -0.518800 8.003381725 0.297590450 13.735481 0 0 0 # O_MOF
462 1 3 -0.518800 4.242036950 5.144340450 15.045905 0 0 0 # O_MOF
463 1 3 -0.518800 6.312891425 9.395909550 10.780201 0 0 0 # O_MOF
464 1 3 -0.518800 10.074236200 4.549159550 9.469777 0 0 0 # O_MOF
465 1 4 0.190400 3.891863474 7.771278950 10.200066 0 0 0 # C_MOF
466 1 4 0.190400 12.495264151 2.924528950 10.049913 0 0 0 # C_MOF
467 1 4 0.190400 10.424409676 1.922221050 14.315617 0 0 0 # C_MOF
468 1 4 0.190400 1.821008998 6.768971050 14.465769 0 0 0 # C_MOF
469 1 5 0.093300 4.738896723 7.798420750 9.771789 0 0 0 # H_MOF
470 1 5 0.093300 11.648230902 2.951670750 10.478190 0 0 0 # H_MOF
471 1 5 0.093300 9.577376427 1.895079250 14.743893 0 0 0 # H_MOF
472 1 5 0.093300 2.668042248 6.741829250 14.037493 0 0 0 # H_MOF
473 1 4 0.162800 10.872056817 7.217780100 10.749488 0 0 0 # C_MOF
474 1 4 0.162800 5.515070807 2.371030100 9.500490 0 0 0 # C_MOF
475 1 4 0.162800 3.444216332 2.475719900 13.766194 0 0 0 # C_MOF
476 1 4 0.162800 8.801202342 7.322469900 15.015192 0 0 0 # C_MOF
477 1 5 0.112600 10.042641556 6.757338850 10.798117 0 0 0 # H_MOF
478 1 5 0.112600 6.344486068 1.910588850 9.451861 0 0 0 # H_MOF
479 1 5 0.112600 4.273631593 2.936161150 13.717565 0 0 0 # H_MOF
480 1 5 0.112600 7.971787081 7.782911150 15.063821 0 0 0 # H_MOF
481 1 4 0.548200 7.041649535 0.298559800 12.953151 0 0 0 # C_MOF
482 1 4 0.548200 5.203769139 5.145309800 15.828235 0 0 0 # C_MOF
483 1 4 0.548200 7.274623614 9.394940200 11.562531 0 0 0 # C_MOF
484 1 4 0.548200 9.112504010 4.548190200 8.687447 0 0 0 # C_MOF
485 1 1 0.687100 0.389084191 0.559411885 20.249978 0 0 0 # Zn_MO
486 1 1 0.687100 7.714625533 5.406161885 17.062815 0 0 0 # Zn_MO
487 1 1 0.687100 5.643771058 9.134088115 21.328519 0 0 0 # Zn_MO
488 1 1 0.687100 -1.681770284 4.287338115 24.515682 0 0 0 # Zn_MO
489 1 2 -0.278500 -0.620464267 8.619460200 19.665662 0 0 0 # N_MOF
490 1 2 -0.278500 8.724173991 3.772710200 17.647131 0 0 0 # N_MOF
491 1 2 -0.278500 6.653319516 1.074039800 21.912835 0 0 0 # N_MOF
492 1 2 -0.278500 -2.691318742 5.920789800 23.931366 0 0 0 # N_MOF
493 1 2 -0.104900 7.024229070 8.263708750 20.021422 0 0 0 # N_MOF
494 1 2 -0.104900 1.079480654 3.416958750 17.291372 0 0 0 # N_MOF
495 1 2 -0.104900 -0.991373821 1.429791250 21.557075 0 0 0 # N_MOF
496 1 2 -0.104900 4.953374595 6.276541250 24.287126 0 0 0 # N_MOF
497 1 2 -0.335600 7.724321088 6.868814100 18.450790 0 0 0 # N_MOF
498 1 2 -0.335600 0.379388636 2.022064100 18.862004 0 0 0 # N_MOF
499 1 2 -0.335600 -1.691465839 2.824685900 23.127708 0 0 0 # N_MOF
500 1 2 -0.335600 5.653466613 7.671435900 22.716494 0 0 0 # N_MOF
501 1 3 -0.556800 1.755986538 0.737675350 21.729410 0 0 0 # O_MOF
502 1 3 -0.556800 2.206014236 5.584425350 24.114791 0 0 0 # O_MOF
503 1 3 -0.556800 4.276868711 8.955824650 19.849088 0 0 0 # O_MOF
504 1 3 -0.556800 3.826841013 4.109074650 17.463706 0 0 0 # O_MOF
505 1 3 -0.518800 3.861672774 0.297590450 22.266889 0 0 0 # O_MOF
506 1 3 -0.518800 0.100328000 5.144340450 23.577313 0 0 0 # O_MOF
507 1 3 -0.518800 2.171182475 9.395909550 19.311609 0 0 0 # O_MOF
508 1 3 -0.518800 5.932527249 4.549159550 18.001185 0 0 0 # O_MOF
509 1 4 0.190400 -0.249845477 7.771278950 18.731473 0 0 0 # C_MOF
510 1 4 0.190400 8.353555201 2.924528950 18.581320 0 0 0 # C_MOF
511 1 4 0.190400 6.282700726 1.922221050 22.847024 0 0 0 # C_MOF
512 1 4 0.190400 -2.320699952 6.768971050 22.997177 0 0 0 # C_MOF
513 1 5 0.093300 0.597187773 7.798420750 18.303197 0 0 0 # H_MOF
514 1 5 0.093300 7.506521952 2.951670750 19.009597 0 0 0 # H_MOF
515 1 5 0.093300 5.435667476 1.895079250 23.275301 0 0 0 # H_MOF
516 1 5 0.093300 -1.473666702 6.741829250 22.568900 0 0 0 # H_MOF
517 1 4 0.162800 6.730347867 7.217780100 19.280896 0 0 0 # C_MOF
518 1 4 0.162800 1.373361857 2.371030100 18.031898 0 0 0 # C_MOF
519 1 4 0.162800 -0.697492618 2.475719900 22.297602 0 0 0 # C_MOF
520 1 4 0.162800 4.659493392 7.322469900 23.546600 0 0 0 # C_MOF
521 1 5 0.112600 5.900932606 6.757338850 19.329525 0 0 0 # H_MOF
522 1 5 0.112600 2.202777118 1.910588850 17.983269 0 0 0 # H_MOF
523 1 5 0.112600 0.131922643 2.936161150 22.248973 0 0 0 # H_MOF
524 1 5 0.112600 3.830078131 7.782911150 23.595229 0 0 0 # H_MOF
525 1 4 0.548200 2.899940585 0.298559800 21.484558 0 0 0 # C_MOF
526 1 4 0.548200 1.062060189 5.145309800 24.359643 0 0 0 # C_MOF
527 1 4 0.548200 3.132914664 9.394940200 20.093939 0 0 0 # C_MOF
528 1 4 0.548200 4.970795060 4.548190200 17.218855 0 0 0 # C_MOF
529 1 1 0.687100 8.672502092 10.252911885 3.187163 0 0 0 # Zn_MO
530 1 1 0.687100 15.998043433 15.099661885 0.000000 0 0 0 # Zn_MO
531 1 1 0.687100 13.927188958 18.827588115 4.265704 0 0 0 # Zn_MO
532 1 1 0.687100 6.601647617 13.980838115 7.452867 0 0 0 # Zn_MO
533 1 2 -0.278500 7.662953634 18.312960200 2.602847 0 0 0 # N_MOF
534 1 2 -0.278500 17.007591891 13.466210200 0.584316 0 0 0 # N_MOF
535 1 2 -0.278500 14.936737416 10.767539800 4.850020 0 0 0 # N_MOF
536 1 2 -0.278500 5.592099159 15.614289800 6.868551 0 0 0 # N_MOF
537 1 2 -0.104900 15.307646970 17.957208750 2.958607 0 0 0 # N_MOF
538 1 2 -0.104900 9.362898554 13.110458750 0.228556 0 0 0 # N_MOF
539 1 2 -0.104900 7.292044079 11.123291250 4.494260 0 0 0 # N_MOF
540 1 2 -0.104900 13.236792495 15.970041250 7.224311 0 0 0 # N_MOF
541 1 2 -0.335600 16.007738988 16.562314100 1.387975 0 0 0 # N_MOF
542 1 2 -0.335600 8.662806537 11.715564100 1.799189 0 0 0 # N_MOF
543 1 2 -0.335600 6.591952062 12.518185900 6.064892 0 0 0 # N_MOF
544 1 2 -0.335600 13.936884513 17.364935900 5.653679 0 0 0 # N_MOF
545 1 3 -0.556800 10.039404439 10.431175350 4.666595 0 0 0 # O_MOF
546 1 3 -0.556800 10.489432136 15.277925350 7.051976 0 0 0 # O_MOF
547 1 3 -0.556800 12.560286611 18.649324650 2.786272 0 0 0 # O_MOF
548 1 3 -0.556800 12.110258914 13.802574650 0.400891 0 0 0 # O_MOF
549 1 3 -0.518800 12.145090675 9.991090450 5.204073 0 0 0 # O_MOF
550 1 3 -0.518800 8.383745900 14.837840450 6.514498 0 0 0 # O_MOF
551 1 3 -0.518800 10.454600375 19.089409550 2.248794 0 0 0 # O_MOF
552 1 3 -0.518800 14.215945150 14.242659550 0.938370 0 0 0 # O_MOF
553 1 4 0.190400 8.033572424 17.464778950 1.668658 0 0 0 # C_MOF
554 1 4 0.190400 16.636973101 12.618028950 1.518505 0 0 0 # C_MOF
555 1 4 0.190400 14.566118626 11.615721050 5.784209 0 0 0 # C_MOF
556 1 4 0.190400 5.962717949 16.462471050 5.934362 0 0 0 # C_MOF
557 1 5 0.093300 8.880605673 17.491920750 1.240381 0 0 0 # H_MOF
558 1 5 0.093300 15.789939852 12.645170750 1.946782 0 0 0 # H_MOF
559 1 5 0.093300 13.719085377 11.588579250 6.212486 0 0 0 # H_MOF
560 1 5 0.093300 6.809751198 16.435329250 5.506085 0 0 0 # H_MOF
561 1 4 0.162800 15.013765767 16.911280100 2.218081 0 0 0 # C_MOF
562 1 4 0.162800 9.656779758 12.064530100 0.969083 0 0 0 # C_MOF
563 1 4 0.162800 7.585925283 12.169219900 5.234786 0 0 0 # C_MOF
564 1 4 0.162800 12.942911292 17.015969900 6.483784 0 0 0 # C_MOF
565 1 5 0.112600 14.184350506 16.450838850 2.266710 0 0 0 # H_MOF
566 1 5 0.112600 10.486195019 11.604088850 0.920454 0 0 0 # H_MOF
567 1 5 0.112600 8.415340544 12.629661150 5.186157 0 0 0 # H_MOF
568 1 5 0.112600 12.113496031 17.476411150 6.532413 0 0 0 # H_MOF
569 1 4 0.548200 11.183358485 9.992059800 4.421743 0 0 0 # C_MOF
570 1 4 0.548200 9.345478089 14.838809800 7.296828 0 0 0 # C_MOF
571 1 4 0.548200 11.416332564 19.088440200 3.031124 0 0 0 # C_MOF
572 1 4 0.548200 13.254212961 14.241690200 0.156039 0 0 0 # C_MOF
573 1 1 0.687100 4.530793141 10.252911885 11.718571 0 0 0 # Zn_MO
574 1 1 0.687100 11.856334483 15.099661885 8.531408 0 0 0 # Zn_MO
575 1 1 0.687100 9.785480008 18.827588115 12.797111 0 0 0 # Zn_MO
576 1 1 0.687100 2.459938666 13.980838115 15.984275 0 0 0 # Zn_MO
577 1 2 -0.278500 3.521244683 18.312960200 11.134255 0 0 0 # N_MOF
578 1 2 -0.278500 12.865882941 13.466210200 9.115724 0 0 0 # N_MOF
579 1 2 -0.278500 10.795028466 10.767539800 13.381428 0 0 0 # N_MOF
580 1 2 -0.278500 1.450390208 15.614289800 15.399959 0 0 0 # N_MOF
581 1 2 -0.104900 11.165938020 17.957208750 11.490014 0 0 0 # N_MOF
582 1 2 -0.104900 5.221189604 13.110458750 8.759964 0 0 0 # N_MOF
583 1 2 -0.104900 3.150335129 11.123291250 13.025668 0 0 0 # N_MOF
584 1 2 -0.104900 9.095083545 15.970041250 15.755718 0 0 0 # N_MOF
585 1 2 -0.335600 11.866030038 16.562314100 9.919382 0 0 0 # N_MOF
586 1 2 -0.335600 4.521097587 11.715564100 10.330596 0 0 0 # N_MOF
587 1 2 -0.335600 2.450243112 12.518185900 14.596300 0 0 0 # N_MOF
588 1 2 -0.335600 9.795175563 17.364935900 14.185086 0 0 0 # N_MOF
589 1 3 -0.556800 5.897695488 10.431175350 13.198002 0 0 0 # O_MOF
590 1 3 -0.556800 6.347723186 15.277925350 15.583384 0 0 0 # O_MOF
591 1 3 -0.556800 8.418577661 18.649324650 11.317680 0 0 0 # O_MOF
592 1 3 -0.556800 7.968549964 13.802574650 8.932298 0 0 0 # O_MOF
593 1 3 -0.518800 8.003381725 9.991090450 13.735481 0 0 0 # O_MOF
594 1 3 -0.518800 4.242036950 14.837840450 15.045905 0 0 0 # O_MOF
595 1 3 -0.518800 6.312891425 19.089409550 10.780201 0 0 0 # O_MOF
596 1 3 -0.518800 10.074236200 14.242659550 9.469777 0 0 0 # O_MOF
597 1 4 0.190400 3.891863474 17.464778950 10.200066 0 0 0 # C_MOF
598 1 4 0.190400 12.495264151 12.618028950 10.049913 0 0 0 # C_MOF
599 1 4 0.190400 10.424409676 11.615721050 14.315617 0 0 0 # C_MOF
600 1 4 0.190400 1.821008998 16.462471050 14.465769 0 0 0 # C_MOF
601 1 5 0.093300 4.738896723 17.491920750 9.771789 0 0 0 # H_MOF
602 1 5 0.093300 11.648230902 12.645170750 10.478190 0 0 0 # H_MOF
603 1 5 0.093300 9.577376427 11.588579250 14.743893 0 0 0 # H_MOF
604 1 5 0.093300 2.668042248 16.435329250 14.037493 0 0 0 # H_MOF
605 1 4 0.162800 10.872056817 16.911280100 10.749488 0 0 0 # C_MOF
606 1 4 0.162800 5.515070807 12.064530100 9.500490 0 0 0 # C_MOF
607 1 4 0.162800 3.444216332 12.169219900 13.766194 0 0 0 # C_MOF
608 1 4 0.162800 8.801202342 17.015969900 15.015192 0 0 0 # C_MOF
609 1 5 0.112600 10.042641556 16.450838850 10.798117 0 0 0 # H_MOF
610 1 5 0.112600 6.344486068 11.604088850 9.451861 0 0 0 # H_MOF
611 1 5 0.112600 4.273631593 12.629661150 13.717565 0 0 0 # H_MOF
612 1 5 0.112600 7.971787081 17.476411150 15.063821 0 0 0 # H_MOF
613 1 4 0.548200 7.041649535 9.992059800 12.953151 0 0 0 # C_MOF
614 1 4 0.548200 5.203769139 14.838809800 15.828235 0 0 0 # C_MOF
615 1 4 0.548200 7.274623614 19.088440200 11.562531 0 0 0 # C_MOF
616 1 4 0.548200 9.112504010 14.241690200 8.687447 0 0 0 # C_MOF
617 1 1 0.687100 0.389084191 10.252911885 20.249978 0 0 0 # Zn_MO
618 1 1 0.687100 7.714625533 15.099661885 17.062815 0 0 0 # Zn_MO
619 1 1 0.687100 5.643771058 18.827588115 21.328519 0 0 0 # Zn_MO
620 1 1 0.687100 -1.681770284 13.980838115 24.515682 0 0 0 # Zn_MO
621 1 2 -0.278500 -0.620464267 18.312960200 19.665662 0 0 0 # N_MOF
622 1 2 -0.278500 8.724173991 13.466210200 17.647131 0 0 0 # N_MOF
623 1 2 -0.278500 6.653319516 10.767539800 21.912835 0 0 0 # N_MOF
624 1 2 -0.278500 -2.691318742 15.614289800 23.931366 0 0 0 # N_MOF
625 1 2 -0.104900 7.024229070 17.957208750 20.021422 0 0 0 # N_MOF
626 1 2 -0.104900 1.079480654 13.110458750 17.291372 0 0 0 # N_MOF
627 1 2 -0.104900 -0.991373821 11.123291250 21.557075 0 0 0 # N_MOF
628 1 2 -0.104900 4.953374595 15.970041250 24.287126 0 0 0 # N_MOF
629 1 2 -0.335600 7.724321088 16.562314100 18.450790 0 0 0 # N_MOF
630 1 2 -0.335600 0.379388636 11.715564100 18.862004 0 0 0 # N_MOF
631 1 2 -0.335600 -1.691465839 12.518185900 23.127708 0 0 0 # N_MOF
632 1 2 -0.335600 5.653466613 17.364935900 22.716494 0 0 0 # N_MOF
633 1 3 -0.556800 1.755986538 10.431175350 21.729410 0 0 0 # O_MOF
634 1 3 -0.556800 2.206014236 15.277925350 24.114791 0 0 0 # O_MOF
635 1 3 -0.556800 4.276868711 18.649324650 19.849088 0 0 0 # O_MOF
636 1 3 -0.556800 3.826841013 13.802574650 17.463706 0 0 0 # O_MOF
637 1 3 -0.518800 3.861672774 9.991090450 22.266889 0 0 0 # O_MOF
638 1 3 -0.518800 0.100328000 14.837840450 23.577313 0 0 0 # O_MOF
639 1 3 -0.518800 2.171182475 19.089409550 19.311609 0 0 0 # O_MOF
640 1 3 -0.518800 5.932527249 14.242659550 18.001185 0 0 0 # O_MOF
641 1 4 0.190400 -0.249845477 17.464778950 18.731473 0 0 0 # C_MOF
642 1 4 0.190400 8.353555201 12.618028950 18.581320 0 0 0 # C_MOF
643 1 4 0.190400 6.282700726 11.615721050 22.847024 0 0 0 # C_MOF
644 1 4 0.190400 -2.320699952 16.462471050 22.997177 0 0 0 # C_MOF
645 1 5 0.093300 0.597187773 17.491920750 18.303197 0 0 0 # H_MOF
646 1 5 0.093300 7.506521952 12.645170750 19.009597 0 0 0 # H_MOF
647 1 5 0.093300 5.435667476 11.588579250 23.275301 0 0 0 # H_MOF
648 1 5 0.093300 -1.473666702 16.435329250 22.568900 0 0 0 # H_MOF
649 1 4 0.162800 6.730347867 16.911280100 19.280896 0 0 0 # C_MOF
650 1 4 0.162800 1.373361857 12.064530100 18.031898 0 0 0 # C_MOF
651 1 4 0.162800 -0.697492618 12.169219900 22.297602 0 0 0 # C_MOF
652 1 4 0.162800 4.659493392 17.015969900 23.546600 0 0 0 # C_MOF
653 1 5 0.112600 5.900932606 16.450838850 19.329525 0 0 0 # H_MOF
654 1 5 0.112600 2.202777118 11.604088850 17.983269 0 0 0 # H_MOF
655 1 5 0.112600 0.131922643 12.629661150 22.248973 0 0 0 # H_MOF
656 1 5 0.112600 3.830078131 17.476411150 23.595229 0 0 0 # H_MOF
657 1 4 0.548200 2.899940585 9.992059800 21.484558 0 0 0 # C_MOF
658 1 4 0.548200 1.062060189 14.838809800 24.359643 0 0 0 # C_MOF
659 1 4 0.548200 3.132914664 19.088440200 20.093939 0 0 0 # C_MOF
660 1 4 0.548200 4.970795060 14.241690200 17.218855 0 0 0 # C_MOF
661 1 1 0.687100 8.672502092 19.946411885 3.187163 0 0 0 # Zn_MO
662 1 1 0.687100 15.998043433 24.793161885 0.000000 0 0 0 # Zn_MO
663 1 1 0.687100 13.927188958 28.521088115 4.265704 0 0 0 # Zn_MO
664 1 1 0.687100 6.601647617 23.674338115 7.452867 0 0 0 # Zn_MO
665 1 2 -0.278500 7.662953634 28.006460200 2.602847 0 0 0 # N_MOF
666 1 2 -0.278500 17.007591891 23.159710200 0.584316 0 0 0 # N_MOF
667 1 2 -0.278500 14.936737416 20.461039800 4.850020 0 0 0 # N_MOF
668 1 2 -0.278500 5.592099159 25.307789800 6.868551 0 0 0 # N_MOF
669 1 2 -0.104900 15.307646970 27.650708750 2.958607 0 0 0 # N_MOF
670 1 2 -0.104900 9.362898554 22.803958750 0.228556 0 0 0 # N_MOF
671 1 2 -0.104900 7.292044079 20.816791250 4.494260 0 0 0 # N_MOF
672 1 2 -0.104900 13.236792495 25.663541250 7.224311 0 0 0 # N_MOF
673 1 2 -0.335600 16.007738988 26.255814100 1.387975 0 0 0 # N_MOF
674 1 2 -0.335600 8.662806537 21.409064100 1.799189 0 0 0 # N_MOF
675 1 2 -0.335600 6.591952062 22.211685900 6.064892 0 0 0 # N_MOF
676 1 2 -0.335600 13.936884513 27.058435900 5.653679 0 0 0 # N_MOF
677 1 3 -0.556800 10.039404439 20.124675350 4.666595 0 0 0 # O_MOF
678 1 3 -0.556800 10.489432136 24.971425350 7.051976 0 0 0 # O_MOF
679 1 3 -0.556800 12.560286611 28.342824650 2.786272 0 0 0 # O_MOF
680 1 3 -0.556800 12.110258914 23.496074650 0.400891 0 0 0 # O_MOF
681 1 3 -0.518800 12.145090675 19.684590450 5.204073 0 0 0 # O_MOF
682 1 3 -0.518800 8.383745900 24.531340450 6.514498 0 0 0 # O_MOF
683 1 3 -0.518800 10.454600375 28.782909550 2.248794 0 0 0 # O_MOF
684 1 3 -0.518800 14.215945150 23.936159550 0.938370 0 0 0 # O_MOF
685 1 4 0.190400 8.033572424 27.158278950 1.668658 0 0 0 # C_MOF
686 1 4 0.190400 16.636973101 22.311528950 1.518505 0 0 0 # C_MOF
687 1 4 0.190400 14.566118626 21.309221050 5.784209 0 0 0 # C_MOF
688 1 4 0.190400 5.962717949 26.155971050 5.934362 0 0 0 # C_MOF
689 1 5 0.093300 8.880605673 27.185420750 1.240381 0 0 0 # H_MOF
690 1 5 0.093300 15.789939852 22.338670750 1.946782 0 0 0 # H_MOF
691 1 5 0.093300 13.719085377 21.282079250 6.212486 0 0 0 # H_MOF
692 1 5 0.093300 6.809751198 26.128829250 5.506085 0 0 0 # H_MOF
693 1 4 0.162800 15.013765767 26.604780100 2.218081 0 0 0 # C_MOF
694 1 4 0.162800 9.656779758 21.758030100 0.969083 0 0 0 # C_MOF
695 1 4 0.162800 7.585925283 21.862719900 5.234786 0 0 0 # C_MOF
696 1 4 0.162800 12.942911292 26.709469900 6.483784 0 0 0 # C_MOF
697 1 5 0.112600 14.184350506 26.144338850 2.266710 0 0 0 # H_MOF
698 1 5 0.112600 10.486195019 21.297588850 0.920454 0 0 0 # H_MOF
699 1 5 0.112600 8.415340544 22.323161150 5.186157 0 0 0 # H_MOF
700 1 5 0.112600 12.113496031 27.169911150 6.532413 0 0 0 # H_MOF
701 1 4 0.548200 11.183358485 19.685559800 4.421743 0 0 0 # C_MOF
702 1 4 0.548200 9.345478089 24.532309800 7.296828 0 0 0 # C_MOF
703 1 4 0.548200 11.416332564 28.781940200 3.031124 0 0 0 # C_MOF
704 1 4 0.548200 13.254212961 23.935190200 0.156039 0 0 0 # C_MOF
705 1 1 0.687100 4.530793141 19.946411885 11.718571 0 0 0 # Zn_MO
706 1 1 0.687100 11.856334483 24.793161885 8.531408 0 0 0 # Zn_MO
707 1 1 0.687100 9.785480008 28.521088115 12.797111 0 0 0 # Zn_MO
708 1 1 0.687100 2.459938666 23.674338115 15.984275 0 0 0 # Zn_MO
709 1 2 -0.278500 3.521244683 28.006460200 11.134255 0 0 0 # N_MOF
710 1 2 -0.278500 12.865882941 23.159710200 9.115724 0 0 0 # N_MOF
711 1 2 -0.278500 10.795028466 20.461039800 13.381428 0 0 0 # N_MOF
712 1 2 -0.278500 1.450390208 25.307789800 15.399959 0 0 0 # N_MOF
713 1 2 -0.104900 11.165938020 27.650708750 11.490014 0 0 0 # N_MOF
714 1 2 -0.104900 5.221189604 22.803958750 8.759964 0 0 0 # N_MOF
715 1 2 -0.104900 3.150335129 20.816791250 13.025668 0 0 0 # N_MOF
716 1 2 -0.104900 9.095083545 25.663541250 15.755718 0 0 0 # N_MOF
717 1 2 -0.335600 11.866030038 26.255814100 9.919382 0 0 0 # N_MOF
718 1 2 -0.335600 4.521097587 21.409064100 10.330596 0 0 0 # N_MOF
719 1 2 -0.335600 2.450243112 22.211685900 14.596300 0 0 0 # N_MOF
720 1 2 -0.335600 9.795175563 27.058435900 14.185086 0 0 0 # N_MOF
721 1 3 -0.556800 5.897695488 20.124675350 13.198002 0 0 0 # O_MOF
722 1 3 -0.556800 6.347723186 24.971425350 15.583384 0 0 0 # O_MOF
723 1 3 -0.556800 8.418577661 28.342824650 11.317680 0 0 0 # O_MOF
724 1 3 -0.556800 7.968549964 23.496074650 8.932298 0 0 0 # O_MOF
725 1 3 -0.518800 8.003381725 19.684590450 13.735481 0 0 0 # O_MOF
726 1 3 -0.518800 4.242036950 24.531340450 15.045905 0 0 0 # O_MOF
727 1 3 -0.518800 6.312891425 28.782909550 10.780201 0 0 0 # O_MOF
728 1 3 -0.518800 10.074236200 23.936159550 9.469777 0 0 0 # O_MOF
729 1 4 0.190400 3.891863474 27.158278950 10.200066 0 0 0 # C_MOF
730 1 4 0.190400 12.495264151 22.311528950 10.049913 0 0 0 # C_MOF
731 1 4 0.190400 10.424409676 21.309221050 14.315617 0 0 0 # C_MOF
732 1 4 0.190400 1.821008998 26.155971050 14.465769 0 0 0 # C_MOF
733 1 5 0.093300 4.738896723 27.185420750 9.771789 0 0 0 # H_MOF
734 1 5 0.093300 11.648230902 22.338670750 10.478190 0 0 0 # H_MOF
735 1 5 0.093300 9.577376427 21.282079250 14.743893 0 0 0 # H_MOF
736 1 5 0.093300 2.668042248 26.128829250 14.037493 0 0 0 # H_MOF
737 1 4 0.162800 10.872056817 26.604780100 10.749488 0 0 0 # C_MOF
738 1 4 0.162800 5.515070807 21.758030100 9.500490 0 0 0 # C_MOF
739 1 4 0.162800 3.444216332 21.862719900 13.766194 0 0 0 # C_MOF
740 1 4 0.162800 8.801202342 26.709469900 15.015192 0 0 0 # C_MOF
741 1 5 0.112600 10.042641556 26.144338850 10.798117 0 0 0 # H_MOF
742 1 5 0.112600 6.344486068 21.297588850 9.451861 0 0 0 # H_MOF
743 1 5 0.112600 4.273631593 22.323161150 13.717565 0 0 0 # H_MOF
744 1 5 0.112600 7.971787081 27.169911150 15.063821 0 0 0 # H_MOF
745 1 4 0.548200 7.041649535 19.685559800 12.953151 0 0 0 # C_MOF
746 1 4 0.548200 5.203769139 24.532309800 15.828235 0 0 0 # C_MOF
747 1 4 0.548200 7.274623614 28.781940200 11.562531 0 0 0 # C_MOF
748 1 4 0.548200 9.112504010 23.935190200 8.687447 0 0 0 # C_MOF
749 1 1 0.687100 0.389084191 19.946411885 20.249978 0 0 0 # Zn_MO
750 1 1 0.687100 7.714625533 24.793161885 17.062815 0 0 0 # Zn_MO
751 1 1 0.687100 5.643771058 28.521088115 21.328519 0 0 0 # Zn_MO
752 1 1 0.687100 -1.681770284 23.674338115 24.515682 0 0 0 # Zn_MO
753 1 2 -0.278500 -0.620464267 28.006460200 19.665662 0 0 0 # N_MOF
754 1 2 -0.278500 8.724173991 23.159710200 17.647131 0 0 0 # N_MOF
755 1 2 -0.278500 6.653319516 20.461039800 21.912835 0 0 0 # N_MOF
756 1 2 -0.278500 -2.691318742 25.307789800 23.931366 0 0 0 # N_MOF
757 1 2 -0.104900 7.024229070 27.650708750 20.021422 0 0 0 # N_MOF
758 1 2 -0.104900 1.079480654 22.803958750 17.291372 0 0 0 # N_MOF
759 1 2 -0.104900 -0.991373821 20.816791250 21.557075 0 0 0 # N_MOF
760 1 2 -0.104900 4.953374595 25.663541250 24.287126 0 0 0 # N_MOF
761 1 2 -0.335600 7.724321088 26.255814100 18.450790 0 0 0 # N_MOF
762 1 2 -0.335600 0.379388636 21.409064100 18.862004 0 0 0 # N_MOF
763 1 2 -0.335600 -1.691465839 22.211685900 23.127708 0 0 0 # N_MOF
764 1 2 -0.335600 5.653466613 27.058435900 22.716494 0 0 0 # N_MOF
765 1 3 -0.556800 1.755986538 20.124675350 21.729410 0 0 0 # O_MOF
766 1 3 -0.556800 2.206014236 24.971425350 24.114791 0 0 0 # O_MOF
767 1 3 -0.556800 4.276868711 28.342824650 19.849088 0 0 0 # O_MOF
768 1 3 -0.556800 3.826841013 23.496074650 17.463706 0 0 0 # O_MOF
769 1 3 -0.518800 3.861672774 19.684590450 22.266889 0 0 0 # O_MOF
770 1 3 -0.518800 0.100328000 24.531340450 23.577313 0 0 0 # O_MOF
771 1 3 -0.518800 2.171182475 28.782909550 19.311609 0 0 0 # O_MOF
772 1 3 -0.518800 5.932527249 23.936159550 18.001185 0 0 0 # O_MOF
773 1 4 0.190400 -0.249845477 27.158278950 18.731473 0 0 0 # C_MOF
774 1 4 0.190400 8.353555201 22.311528950 18.581320 0 0 0 # C_MOF
775 1 4 0.190400 6.282700726 21.309221050 22.847024 0 0 0 # C_MOF
776 1 4 0.190400 -2.320699952 26.155971050 22.997177 0 0 0 # C_MOF
777 1 5 0.093300 0.597187773 27.185420750 18.303197 0 0 0 # H_MOF
778 1 5 0.093300 7.506521952 22.338670750 19.009597 0 0 0 # H_MOF
779 1 5 0.093300 5.435667476 21.282079250 23.275301 0 0 0 # H_MOF
780 1 5 0.093300 -1.473666702 26.128829250 22.568900 0 0 0 # H_MOF
781 1 4 0.162800 6.730347867 26.604780100 19.280896 0 0 0 # C_MOF
782 1 4 0.162800 1.373361857 21.758030100 18.031898 0 0 0 # C_MOF
783 1 4 0.162800 -0.697492618 21.862719900 22.297602 0 0 0 # C_MOF
784 1 4 0.162800 4.659493392 26.709469900 23.546600 0 0 0 # C_MOF
785 1 5 0.112600 5.900932606 26.144338850 19.329525 0 0 0 # H_MOF
786 1 5 0.112600 2.202777118 21.297588850 17.983269 0 0 0 # H_MOF
787 1 5 0.112600 0.131922643 22.323161150 22.248973 0 0 0 # H_MOF
788 1 5 0.112600 3.830078131 27.169911150 23.595229 0 0 0 # H_MOF
789 1 4 0.548200 2.899940585 19.685559800 21.484558 0 0 0 # C_MOF
790 1 4 0.548200 1.062060189 24.532309800 24.359643 0 0 0 # C_MOF
791 1 4 0.548200 3.132914664 28.781940200 20.093939 0 0 0 # C_MOF
792 1 4 0.548200 4.970795060 23.935190200 17.218855 0 0 0 # C_MOF
793 1 1 0.687100 17.586302092 0.559411885 3.187163 0 0 0 # Zn_MO
794 1 1 0.687100 -1.829556567 5.406161885 0.000000 1 0 0 # Zn_MO
795 1 1 0.687100 -3.900411042 9.134088115 4.265704 1 0 0 # Zn_MO
796 1 1 0.687100 15.515447617 4.287338115 7.452867 0 0 0 # Zn_MO
797 1 2 -0.278500 16.576753634 8.619460200 2.602847 0 0 0 # N_MOF
798 1 2 -0.278500 -0.820008109 3.772710200 0.584316 1 0 0 # N_MOF
799 1 2 -0.278500 -2.890862584 1.074039800 4.850020 1 0 0 # N_MOF
800 1 2 -0.278500 14.505899159 5.920789800 6.868551 0 0 0 # N_MOF
801 1 2 -0.104900 -2.519953030 8.263708750 2.958607 1 0 0 # N_MOF
802 1 2 -0.104900 18.276698554 3.416958750 0.228556 0 0 0 # N_MOF
803 1 2 -0.104900 16.205844079 1.429791250 4.494260 0 0 0 # N_MOF
804 1 2 -0.104900 -4.590807505 6.276541250 7.224311 1 0 0 # N_MOF
805 1 2 -0.335600 -1.819861012 6.868814100 1.387975 1 0 0 # N_MOF
806 1 2 -0.335600 17.576606537 2.022064100 1.799189 0 0 0 # N_MOF
807 1 2 -0.335600 15.505752062 2.824685900 6.064892 0 0 0 # N_MOF
808 1 2 -0.335600 -3.890715487 7.671435900 5.653679 1 0 0 # N_MOF
809 1 3 -0.556800 -7.788195561 0.737675350 4.666595 1 0 0 # O_MOF
810 1 3 -0.556800 -7.338167864 5.584425350 7.051976 1 0 0 # O_MOF
811 1 3 -0.556800 -5.267313389 8.955824650 2.786272 1 0 0 # O_MOF
812 1 3 -0.556800 -5.717341086 4.109074650 0.400891 1 0 0 # O_MOF
813 1 3 -0.518800 -5.682509325 0.297590450 5.204073 1 0 0 # O_MOF
814 1 3 -0.518800 -9.443854100 5.144340450 6.514498 1 0 0 # O_MOF
815 1 3 -0.518800 -7.372999625 9.395909550 2.248794 1 0 0 # O_MOF
816 1 3 -0.518800 -3.611654850 4.549159550 0.938370 1 0 0 # O_MOF
817 1 4 0.190400 16.947372424 7.771278950 1.668658 0 0 0 # C_MOF
818 1 4 0.190400 -1.190626899 2.924528950 1.518505 1 0 0 # C_MOF
819 1 4 0.190400 -3.261481374 1.922221050 5.784209 1 0 0 # C_MOF
820 1 4 0.190400 14.876517949 6.768971050 5.934362 0 0 0 # C_MOF
821 1 5 0.093300 17.794405673 7.798420750 1.240381 0 0 0 # H_MOF
822 1 5 0.093300 -2.037660148 2.951670750 1.946782 1 0 0 # H_MOF
823 1 5 0.093300 -4.108514623 1.895079250 6.212486 1 0 0 # H_MOF
824 1 5 0.093300 15.723551198 6.741829250 5.506085 0 0 0 # H_MOF
825 1 4 0.162800 -2.813834233 7.217780100 2.218081 1 0 0 # C_MOF
826 1 4 0.162800 18.570579758 2.371030100 0.969083 0 0 0 # C_MOF
827 1 4 0.162800 16.499725283 2.475719900 5.234786 0 0 0 # C_MOF
828 1 4 0.162800 -4.884688708 7.322469900 6.483784 1 0 0 # C_MOF
829 1 5 0.112600 -3.643249494 6.757338850 2.266710 1 0 0 # H_MOF
830 1 5 0.112600 19.399995019 1.910588850 0.920454 0 0 0 # H_MOF
831 1 5 0.112600 17.329140544 2.936161150 5.186157 0 0 0 # H_MOF
832 1 5 0.112600 -5.714103969 7.782911150 6.532413 1 0 0 # H_MOF
833 1 4 0.548200 -6.644241515 0.298559800 4.421743 1 0 0 # C_MOF
834 1 4 0.548200 -8.482121911 5.145309800 7.296828 1 0 0 # C_MOF
835 1 4 0.548200 -6.411267436 9.394940200 3.031124 1 0 0 # C_MOF
836 1 4 0.548200 -4.573387039 4.548190200 0.156039 1 0 0 # C_MOF
837 1 1 0.687100 13.444593141 0.559411885 11.718571 0 0 0 # Zn_MO
838 1 1 0.687100 -5.971265517 5.406161885 8.531408 1 0 0 # Zn_MO
839 1 1 0.687100 -8.042119992 9.134088115 12.797111 1 0 0 # Zn_MO
840 1 1 0.687100 11.373738666 4.287338115 15.984275 0 0 0 # Zn_MO
841 1 2 -0.278500 12.435044683 8.619460200 11.134255 0 0 0 # N_MOF
842 1 2 -0.278500 -4.961717059 3.772710200 9.115724 1 0 0 # N_MOF
843 1 2 -0.278500 -7.032571534 1.074039800 13.381428 1 0 0 # N_MOF
844 1 2 -0.278500 10.364190208 5.920789800 15.399959 0 0 0 # N_MOF
845 1 2 -0.104900 -6.661661980 8.263708750 11.490014 1 0 0 # N_MOF
846 1 2 -0.104900 14.134989604 3.416958750 8.759964 0 0 0 # N_MOF
847 1 2 -0.104900 12.064135129 1.429791250 13.025668 0 0 0 # N_MOF
848 1 2 -0.104900 -8.732516455 6.276541250 15.755718 1 0 0 # N_MOF
849 1 2 -0.335600 -5.961569962 6.868814100 9.919382 1 0 0 # N_MOF
850 1 2 -0.335600 13.434897587 2.022064100 10.330596 0 0 0 # N_MOF
851 1 2 -0.335600 11.364043112 2.824685900 14.596300 0 0 0 # N_MOF
852 1 2 -0.335600 -8.032424437 7.671435900 14.185086 1 0 0 # N_MOF
853 1 3 -0.556800 -11.929904512 0.737675350 13.198002 1 0 0 # O_MOF
854 1 3 -0.556800 -11.479876814 5.584425350 15.583384 1 0 0 # O_MOF
855 1 3 -0.556800 -9.409022339 8.955824650 11.317680 1 0 0 # O_MOF
856 1 3 -0.556800 -9.859050036 4.109074650 8.932298 1 0 0 # O_MOF
857 1 3 -0.518800 -9.824218275 0.297590450 13.735481 1 0 0 # O_MOF
858 1 3 -0.518800 -13.585563050 5.144340450 15.045905 1 0 0 # O_MOF
859 1 3 -0.518800 -11.514708575 9.395909550 10.780201 1 0 0 # O_MOF
860 1 3 -0.518800 -7.753363800 4.549159550 9.469777 1 0 0 # O_MOF
861 1 4 0.190400 12.805663474 7.771278950 10.200066 0 0 0 # C_MOF
862 1 4 0.190400 -5.332335849 2.924528950 10.049913 1 0 0 # C_MOF
863 1 4 0.190400 -7.403190324 1.922221050 14.315617 1 0 0 # C_MOF
864 1 4 0.190400 10.734808998 6.768971050 14.465769 0 0 0 # C_MOF
865 1 5 0.093300 13.652696723 7.798420750 9.771789 0 0 0 # H_MOF
866 1 5 0.093300 -6.179369098 2.951670750 10.478190 1 0 0 # H_MOF
867 1 5 0.093300 -8.250223573 1.895079250 14.743893 1 0 0 # H_MOF
868 1 5 0.093300 11.581842248 6.741829250 14.037493 0 0 0 # H_MOF
869 1 4 0.162800 -6.955543183 7.217780100 10.749488 1 0 0 # C_MOF
870 1 4 0.162800 14.428870807 2.371030100 9.500490 0 0 0 # C_MOF
871 1 4 0.162800 12.358016332 2.475719900 13.766194 0 0 0 # C_MOF
872 1 4 0.162800 -9.026397658 7.322469900 15.015192 1 0 0 # C_MOF
873 1 5 0.112600 -7.784958444 6.757338850 10.798117 1 0 0 # H_MOF
874 1 5 0.112600 15.258286068 1.910588850 9.451861 0 0 0 # H_MOF
875 1 5 0.112600 13.187431593 2.936161150 13.717565 0 0 0 # H_MOF
876 1 5 0.112600 -9.855812919 7.782911150 15.063821 1 0 0 # H_MOF
877 1 4 0.548200 -10.785950465 0.298559800 12.953151 1 0 0 # C_MOF
878 1 4 0.548200 -12.623830861 5.145309800 15.828235 1 0 0 # C_MOF
879 1 4 0.548200 -10.552976386 9.394940200 11.562531 1 0 0 # C_MOF
880 1 4 0.548200 -8.715095990 4.548190200 8.687447 1 0 0 # C_MOF
881 1 1 0.687100 9.302884191 0.559411885 20.249978 0 0 0 # Zn_MO
882 1 1 0.687100 -10.112974467 5.406161885 17.062815 1 0 0 # Zn_MO
883 1 1 0.687100 -12.183828942 9.134088115 21.328519 1 0 0 # Zn_MO
884 1 1 0.687100 7.232029716 4.287338115 24.515682 0 0 0 # Zn_MO
885 1 2 -0.278500 8.293335733 8.619460200 19.665662 0 0 0 # N_MOF
886 1 2 -0.278500 -9.103426009 3.772710200 17.647131 1 0 0 # N_MOF
887 1 2 -0.278500 -11.174280484 1.074039800 21.912835 1 0 0 # N_MOF
888 1 2 -0.278500 6.222481258 5.920789800 23.931366 0 0 0 # N_MOF
889 1 2 -0.104900 -10.803370930 8.263708750 20.021422 1 0 0 # N_MOF
890 1 2 -0.104900 9.993280654 3.416958750 17.291372 0 0 0 # N_MOF
891 1 2 -0.104900 7.922426179 1.429791250 21.557075 0 0 0 # N_MOF
892 1 2 -0.104900 -12.874225405 6.276541250 24.287126 1 0 0 # N_MOF
893 1 2 -0.335600 -10.103278912 6.868814100 18.450790 1 0 0 # N_MOF
894 1 2 -0.335600 9.293188636 2.022064100 18.862004 0 0 0 # N_MOF
895 1 2 -0.335600 7.222334161 2.824685900 23.127708 0 0 0 # N_MOF
896 1 2 -0.335600 -12.174133387 7.671435900 22.716494 1 0 0 # N_MOF
897 1 3 -0.556800 -16.071613462 0.737675350 21.729410 1 0 0 # O_MOF
898 1 3 -0.556800 -15.621585764 5.584425350 24.114791 1 0 0 # O_MOF
899 1 3 -0.556800 -13.550731289 8.955824650 19.849088 1 0 0 # O_MOF
900 1 3 -0.556800 -14.000758987 4.109074650 17.463706 1 0 0 # O_MOF
901 1 3 -0.518800 -13.965927226 0.297590450 22.266889 1 0 0 # O_MOF
902 1 3 -0.518800 -17.727272000 5.144340450 23.577313 1 0 0 # O_MOF
903 1 3 -0.518800 -15.656417525 9.395909550 19.311609 1 0 0 # O_MOF
904 1 3 -0.518800 -11.895072751 4.549159550 18.001185 1 0 0 # O_MOF
905 1 4 0.190400 8.663954523 7.771278950 18.731473 0 0 0 # C_MOF
906 1 4 0.190400 -9.474044799 2.924528950 18.581320 1 0 0 # C_MOF
907 1 4 0.190400 -11.544899274 1.922221050 22.847024 1 0 0 # C_MOF
908 1 4 0.190400 6.593100048 6.768971050 22.997177 0 0 0 # C_MOF
909 1 5 0.093300 9.510987773 7.798420750 18.303197 0 0 0 # H_MOF
910 1 5 0.093300 -10.321078048 2.951670750 19.009597 1 0 0 # H_MOF
911 1 5 0.093300 -12.391932524 1.895079250 23.275301 1 0 0 # H_MOF
912 1 5 0.093300 7.440133298 6.741829250 22.568900 0 0 0 # H_MOF
913 1 4 0.162800 -11.097252133 7.217780100 19.280896 1 0 0 # C_MOF
914 1 4 0.162800 10.287161857 2.371030100 18.031898 0 0 0 # C_MOF
915 1 4 0.162800 8.216307382 2.475719900 22.297602 0 0 0 # C_MOF
916 1 4 0.162800 -13.168106608 7.322469900 23.546600 1 0 0 # C_MOF
917 1 5 0.112600 -11.926667394 6.757338850 19.329525 1 0 0 # H_MOF
918 1 5 0.112600 11.116577118 1.910588850 17.983269 0 0 0 # H_MOF
919 1 5 0.112600 9.045722643 2.936161150 22.248973 0 0 0 # H_MOF
920 1 5 0.112600 -13.997521869 7.782911150 23.595229 1 0 0 # H_MOF
921 1 4 0.548200 -14.927659415 0.298559800 21.484558 1 0 0 # C_MOF
922 1 4 0.548200 -16.765539811 5.145309800 24.359643 1 0 0 # C_MOF
923 1 4 0.548200 -14.694685336 9.394940200 20.093939 1 0 0 # C_MOF
924 1 4 0.548200 -12.856804940 4.548190200 17.218855 1 0 0 # C_MOF
925 1 1 0.687100 17.586302092 10.252911885 3.187163 0 0 0 # Zn_MO
926 1 1 0.687100 -1.829556567 15.099661885 0.000000 1 0 0 # Zn_MO
927 1 1 0.687100 -3.900411042 18.827588115 4.265704 1 0 0 # Zn_MO
928 1 1 0.687100 15.515447617 13.980838115 7.452867 0 0 0 # Zn_MO
929 1 2 -0.278500 16.576753634 18.312960200 2.602847 0 0 0 # N_MOF
930 1 2 -0.278500 -0.820008109 13.466210200 0.584316 1 0 0 # N_MOF
931 1 2 -0.278500 -2.890862584 10.767539800 4.850020 1 0 0 # N_MOF
932 1 2 -0.278500 14.505899159 15.614289800 6.868551 0 0 0 # N_MOF
933 1 2 -0.104900 -2.519953030 17.957208750 2.958607 1 0 0 # N_MOF
934 1 2 -0.104900 18.276698554 13.110458750 0.228556 0 0 0 # N_MOF
935 1 2 -0.104900 16.205844079 11.123291250 4.494260 0 0 0 # N_MOF
936 1 2 -0.104900 -4.590807505 15.970041250 7.224311 1 0 0 # N_MOF
937 1 2 -0.335600 -1.819861012 16.562314100 1.387975 1 0 0 # N_MOF
938 1 2 -0.335600 17.576606537 11.715564100 1.799189 0 0 0 # N_MOF
939 1 2 -0.335600 15.505752062 12.518185900 6.064892 0 0 0 # N_MOF
940 1 2 -0.335600 -3.890715487 17.364935900 5.653679 1 0 0 # N_MOF
941 1 3 -0.556800 -7.788195561 10.431175350 4.666595 1 0 0 # O_MOF
942 1 3 -0.556800 -7.338167864 15.277925350 7.051976 1 0 0 # O_MOF
943 1 3 -0.556800 -5.267313389 18.649324650 2.786272 1 0 0 # O_MOF
944 1 3 -0.556800 -5.717341086 13.802574650 0.400891 1 0 0 # O_MOF
945 1 3 -0.518800 -5.682509325 9.991090450 5.204073 1 0 0 # O_MOF
946 1 3 -0.518800 -9.443854100 14.837840450 6.514498 1 0 0 # O_MOF
947 1 3 -0.518800 -7.372999625 19.089409550 2.248794 1 0 0 # O_MOF
948 1 3 -0.518800 -3.611654850 14.242659550 0.938370 1 0 0 # O_MOF
949 1 4 0.190400 16.947372424 17.464778950 1.668658 0 0 0 # C_MOF
950 1 4 0.190400 -1.190626899 12.618028950 1.518505 1 0 0 # C_MOF
951 1 4 0.190400 -3.261481374 11.615721050 5.784209 1 0 0 # C_MOF
952 1 4 0.190400 14.876517949 16.462471050 5.934362 0 0 0 # C_MOF
953 1 5 0.093300 17.794405673 17.491920750 1.240381 0 0 0 # H_MOF
954 1 5 0.093300 -2.037660148 12.645170750 1.946782 1 0 0 # H_MOF
955 1 5 0.093300 -4.108514623 11.588579250 6.212486 1 0 0 # H_MOF
956 1 5 0.093300 15.723551198 16.435329250 5.506085 0 0 0 # H_MOF
957 1 4 0.162800 -2.813834233 16.911280100 2.218081 1 0 0 # C_MOF
958 1 4 0.162800 18.570579758 12.064530100 0.969083 0 0 0 # C_MOF
959 1 4 0.162800 16.499725283 12.169219900 5.234786 0 0 0 # C_MOF
960 1 4 0.162800 -4.884688708 17.015969900 6.483784 1 0 0 # C_MOF
961 1 5 0.112600 -3.643249494 16.450838850 2.266710 1 0 0 # H_MOF
962 1 5 0.112600 19.399995019 11.604088850 0.920454 0 0 0 # H_MOF
963 1 5 0.112600 17.329140544 12.629661150 5.186157 0 0 0 # H_MOF
964 1 5 0.112600 -5.714103969 17.476411150 6.532413 1 0 0 # H_MOF
965 1 4 0.548200 -6.644241515 9.992059800 4.421743 1 0 0 # C_MOF
966 1 4 0.548200 -8.482121911 14.838809800 7.296828 1 0 0 # C_MOF
967 1 4 0.548200 -6.411267436 19.088440200 3.031124 1 0 0 # C_MOF
968 1 4 0.548200 -4.573387039 14.241690200 0.156039 1 0 0 # C_MOF
969 1 1 0.687100 13.444593141 10.252911885 11.718571 0 0 0 # Zn_MO
970 1 1 0.687100 -5.971265517 15.099661885 8.531408 1 0 0 # Zn_MO
971 1 1 0.687100 -8.042119992 18.827588115 12.797111 1 0 0 # Zn_MO
972 1 1 0.687100 11.373738666 13.980838115 15.984275 0 0 0 # Zn_MO
973 1 2 -0.278500 12.435044683 18.312960200 11.134255 0 0 0 # N_MOF
974 1 2 -0.278500 -4.961717059 13.466210200 9.115724 1 0 0 # N_MOF
975 1 2 -0.278500 -7.032571534 10.767539800 13.381428 1 0 0 # N_MOF
976 1 2 -0.278500 10.364190208 15.614289800 15.399959 0 0 0 # N_MOF
977 1 2 -0.104900 -6.661661980 17.957208750 11.490014 1 0 0 # N_MOF
978 1 2 -0.104900 14.134989604 13.110458750 8.759964 0 0 0 # N_MOF
979 1 2 -0.104900 12.064135129 11.123291250 13.025668 0 0 0 # N_MOF
980 1 2 -0.104900 -8.732516455 15.970041250 15.755718 1 0 0 # N_MOF
981 1 2 -0.335600 -5.961569962 16.562314100 9.919382 1 0 0 # N_MOF
982 1 2 -0.335600 13.434897587 11.715564100 10.330596 0 0 0 # N_MOF
983 1 2 -0.335600 11.364043112 12.518185900 14.596300 0 0 0 # N_MOF
984 1 2 -0.335600 -8.032424437 17.364935900 14.185086 1 0 0 # N_MOF
985 1 3 -0.556800 -11.929904512 10.431175350 13.198002 1 0 0 # O_MOF
986 1 3 -0.556800 -11.479876814 15.277925350 15.583384 1 0 0 # O_MOF
987 1 3 -0.556800 -9.409022339 18.649324650 11.317680 1 0 0 # O_MOF
988 1 3 -0.556800 -9.859050036 13.802574650 8.932298 1 0 0 # O_MOF
989 1 3 -0.518800 -9.824218275 9.991090450 13.735481 1 0 0 # O_MOF
990 1 3 -0.518800 -13.585563050 14.837840450 15.045905 1 0 0 # O_MOF
991 1 3 -0.518800 -11.514708575 19.089409550 10.780201 1 0 0 # O_MOF
992 1 3 -0.518800 -7.753363800 14.242659550 9.469777 1 0 0 # O_MOF
993 1 4 0.190400 12.805663474 17.464778950 10.200066 0 0 0 # C_MOF
994 1 4 0.190400 -5.332335849 12.618028950 10.049913 1 0 0 # C_MOF
995 1 4 0.190400 -7.403190324 11.615721050 14.315617 1 0 0 # C_MOF
996 1 4 0.190400 10.734808998 16.462471050 14.465769 0 0 0 # C_MOF
997 1 5 0.093300 13.652696723 17.491920750 9.771789 0 0 0 # H_MOF
998 1 5 0.093300 -6.179369098 12.645170750 10.478190 1 0 0 # H_MOF
999 1 5 0.093300 -8.250223573 11.588579250 14.743893 1 0 0 # H_MOF
1000 1 5 0.093300 11.581842248 16.435329250 14.037493 0 0 0 # H_MOF
1001 1 4 0.162800 -6.955543183 16.911280100 10.749488 1 0 0 # C_MOF
1002 1 4 0.162800 14.428870807 12.064530100 9.500490 0 0 0 # C_MOF
1003 1 4 0.162800 12.358016332 12.169219900 13.766194 0 0 0 # C_MOF
1004 1 4 0.162800 -9.026397658 17.015969900 15.015192 1 0 0 # C_MOF
1005 1 5 0.112600 -7.784958444 16.450838850 10.798117 1 0 0 # H_MOF
1006 1 5 0.112600 15.258286068 11.604088850 9.451861 0 0 0 # H_MOF
1007 1 5 0.112600 13.187431593 12.629661150 13.717565 0 0 0 # H_MOF
1008 1 5 0.112600 -9.855812919 17.476411150 15.063821 1 0 0 # H_MOF
1009 1 4 0.548200 -10.785950465 9.992059800 12.953151 1 0 0 # C_MOF
1010 1 4 0.548200 -12.623830861 14.838809800 15.828235 1 0 0 # C_MOF
1011 1 4 0.548200 -10.552976386 19.088440200 11.562531 1 0 0 # C_MOF
1012 1 4 0.548200 -8.715095990 14.241690200 8.687447 1 0 0 # C_MOF
1013 1 1 0.687100 9.302884191 10.252911885 20.249978 0 0 0 # Zn_MO
1014 1 1 0.687100 -10.112974467 15.099661885 17.062815 1 0 0 # Zn_MO
1015 1 1 0.687100 -12.183828942 18.827588115 21.328519 1 0 0 # Zn_MO
1016 1 1 0.687100 7.232029716 13.980838115 24.515682 0 0 0 # Zn_MO
1017 1 2 -0.278500 8.293335733 18.312960200 19.665662 0 0 0 # N_MOF
1018 1 2 -0.278500 -9.103426009 13.466210200 17.647131 1 0 0 # N_MOF
1019 1 2 -0.278500 -11.174280484 10.767539800 21.912835 1 0 0 # N_MOF
1020 1 2 -0.278500 6.222481258 15.614289800 23.931366 0 0 0 # N_MOF
1021 1 2 -0.104900 -10.803370930 17.957208750 20.021422 1 0 0 # N_MOF
1022 1 2 -0.104900 9.993280654 13.110458750 17.291372 0 0 0 # N_MOF
1023 1 2 -0.104900 7.922426179 11.123291250 21.557075 0 0 0 # N_MOF
1024 1 2 -0.104900 -12.874225405 15.970041250 24.287126 1 0 0 # N_MOF
1025 1 2 -0.335600 -10.103278912 16.562314100 18.450790 1 0 0 # N_MOF
1026 1 2 -0.335600 9.293188636 11.715564100 18.862004 0 0 0 # N_MOF
1027 1 2 -0.335600 7.222334161 12.518185900 23.127708 0 0 0 # N_MOF
1028 1 2 -0.335600 -12.174133387 17.364935900 22.716494 1 0 0 # N_MOF
1029 1 3 -0.556800 -16.071613462 10.431175350 21.729410 1 0 0 # O_MOF
1030 1 3 -0.556800 -15.621585764 15.277925350 24.114791 1 0 0 # O_MOF
1031 1 3 -0.556800 -13.550731289 18.649324650 19.849088 1 0 0 # O_MOF
1032 1 3 -0.556800 -14.000758987 13.802574650 17.463706 1 0 0 # O_MOF
1033 1 3 -0.518800 -13.965927226 9.991090450 22.266889 1 0 0 # O_MOF
1034 1 3 -0.518800 -17.727272000 14.837840450 23.577313 1 0 0 # O_MOF
1035 1 3 -0.518800 -15.656417525 19.089409550 19.311609 1 0 0 # O_MOF
1036 1 3 -0.518800 -11.895072751 14.242659550 18.001185 1 0 0 # O_MOF
1037 1 4 0.190400 8.663954523 17.464778950 18.731473 0 0 0 # C_MOF
1038 1 4 0.190400 -9.474044799 12.618028950 18.581320 1 0 0 # C_MOF
1039 1 4 0.190400 -11.544899274 11.615721050 22.847024 1 0 0 # C_MOF
1040 1 4 0.190400 6.593100048 16.462471050 22.997177 0 0 0 # C_MOF
1041 1 5 0.093300 9.510987773 17.491920750 18.303197 0 0 0 # H_MOF
1042 1 5 0.093300 -10.321078048 12.645170750 19.009597 1 0 0 # H_MOF
1043 1 5 0.093300 -12.391932524 11.588579250 23.275301 1 0 0 # H_MOF
1044 1 5 0.093300 7.440133298 16.435329250 22.568900 0 0 0 # H_MOF
1045 1 4 0.162800 -11.097252133 16.911280100 19.280896 1 0 0 # C_MOF
1046 1 4 0.162800 10.287161857 12.064530100 18.031898 0 0 0 # C_MOF
1047 1 4 0.162800 8.216307382 12.169219900 22.297602 0 0 0 # C_MOF
1048 1 4 0.162800 -13.168106608 17.015969900 23.546600 1 0 0 # C_MOF
1049 1 5 0.112600 -11.926667394 16.450838850 19.329525 1 0 0 # H_MOF
1050 1 5 0.112600 11.116577118 11.604088850 17.983269 0 0 0 # H_MOF
1051 1 5 0.112600 9.045722643 12.629661150 22.248973 0 0 0 # H_MOF
1052 1 5 0.112600 -13.997521869 17.476411150 23.595229 1 0 0 # H_MOF
1053 1 4 0.548200 -14.927659415 9.992059800 21.484558 1 0 0 # C_MOF
1054 1 4 0.548200 -16.765539811 14.838809800 24.359643 1 0 0 # C_MOF
1055 1 4 0.548200 -14.694685336 19.088440200 20.093939 1 0 0 # C_MOF
1056 1 4 0.548200 -12.856804940 14.241690200 17.218855 1 0 0 # C_MOF
1057 1 1 0.687100 17.586302092 19.946411885 3.187163 0 0 0 # Zn_MO
1058 1 1 0.687100 -1.829556567 24.793161885 0.000000 1 0 0 # Zn_MO
1059 1 1 0.687100 -3.900411042 28.521088115 4.265704 1 0 0 # Zn_MO
1060 1 1 0.687100 15.515447617 23.674338115 7.452867 0 0 0 # Zn_MO
1061 1 2 -0.278500 16.576753634 28.006460200 2.602847 0 0 0 # N_MOF
1062 1 2 -0.278500 -0.820008109 23.159710200 0.584316 1 0 0 # N_MOF
1063 1 2 -0.278500 -2.890862584 20.461039800 4.850020 1 0 0 # N_MOF
1064 1 2 -0.278500 14.505899159 25.307789800 6.868551 0 0 0 # N_MOF
1065 1 2 -0.104900 -2.519953030 27.650708750 2.958607 1 0 0 # N_MOF
1066 1 2 -0.104900 18.276698554 22.803958750 0.228556 0 0 0 # N_MOF
1067 1 2 -0.104900 16.205844079 20.816791250 4.494260 0 0 0 # N_MOF
1068 1 2 -0.104900 -4.590807505 25.663541250 7.224311 1 0 0 # N_MOF
1069 1 2 -0.335600 -1.819861012 26.255814100 1.387975 1 0 0 # N_MOF
1070 1 2 -0.335600 17.576606537 21.409064100 1.799189 0 0 0 # N_MOF
1071 1 2 -0.335600 15.505752062 22.211685900 6.064892 0 0 0 # N_MOF
1072 1 2 -0.335600 -3.890715487 27.058435900 5.653679 1 0 0 # N_MOF
1073 1 3 -0.556800 -7.788195561 20.124675350 4.666595 1 0 0 # O_MOF
1074 1 3 -0.556800 -7.338167864 24.971425350 7.051976 1 0 0 # O_MOF
1075 1 3 -0.556800 -5.267313389 28.342824650 2.786272 1 0 0 # O_MOF
1076 1 3 -0.556800 -5.717341086 23.496074650 0.400891 1 0 0 # O_MOF
1077 1 3 -0.518800 -5.682509325 19.684590450 5.204073 1 0 0 # O_MOF
1078 1 3 -0.518800 -9.443854100 24.531340450 6.514498 1 0 0 # O_MOF
1079 1 3 -0.518800 -7.372999625 28.782909550 2.248794 1 0 0 # O_MOF
1080 1 3 -0.518800 -3.611654850 23.936159550 0.938370 1 0 0 # O_MOF
1081 1 4 0.190400 16.947372424 27.158278950 1.668658 0 0 0 # C_MOF
1082 1 4 0.190400 -1.190626899 22.311528950 1.518505 1 0 0 # C_MOF
1083 1 4 0.190400 -3.261481374 21.309221050 5.784209 1 0 0 # C_MOF
1084 1 4 0.190400 14.876517949 26.155971050 5.934362 0 0 0 # C_MOF
1085 1 5 0.093300 17.794405673 27.185420750 1.240381 0 0 0 # H_MOF
1086 1 5 0.093300 -2.037660148 22.338670750 1.946782 1 0 0 # H_MOF
1087 1 5 0.093300 -4.108514623 21.282079250 6.212486 1 0 0 # H_MOF
1088 1 5 0.093300 15.723551198 26.128829250 5.506085 0 0 0 # H_MOF
1089 1 4 0.162800 -2.813834233 26.604780100 2.218081 1 0 0 # C_MOF
1090 1 4 0.162800 18.570579758 21.758030100 0.969083 0 0 0 # C_MOF
1091 1 4 0.162800 16.499725283 21.862719900 5.234786 0 0 0 # C_MOF
1092 1 4 0.162800 -4.884688708 26.709469900 6.483784 1 0 0 # C_MOF
1093 1 5 0.112600 -3.643249494 26.144338850 2.266710 1 0 0 # H_MOF
1094 1 5 0.112600 19.399995019 21.297588850 0.920454 0 0 0 # H_MOF
1095 1 5 0.112600 17.329140544 22.323161150 5.186157 0 0 0 # H_MOF
1096 1 5 0.112600 -5.714103969 27.169911150 6.532413 1 0 0 # H_MOF
1097 1 4 0.548200 -6.644241515 19.685559800 4.421743 1 0 0 # C_MOF
1098 1 4 0.548200 -8.482121911 24.532309800 7.296828 1 0 0 # C_MOF
1099 1 4 0.548200 -6.411267436 28.781940200 3.031124 1 0 0 # C_MOF
1100 1 4 0.548200 -4.573387039 23.935190200 0.156039 1 0 0 # C_MOF
1101 1 1 0.687100 13.444593141 19.946411885 11.718571 0 0 0 # Zn_MO
1102 1 1 0.687100 -5.971265517 24.793161885 8.531408 1 0 0 # Zn_MO
1103 1 1 0.687100 -8.042119992 28.521088115 12.797111 1 0 0 # Zn_MO
1104 1 1 0.687100 11.373738666 23.674338115 15.984275 0 0 0 # Zn_MO
1105 1 2 -0.278500 12.435044683 28.006460200 11.134255 0 0 0 # N_MOF
1106 1 2 -0.278500 -4.961717059 23.159710200 9.115724 1 0 0 # N_MOF
1107 1 2 -0.278500 -7.032571534 20.461039800 13.381428 1 0 0 # N_MOF
1108 1 2 -0.278500 10.364190208 25.307789800 15.399959 0 0 0 # N_MOF
1109 1 2 -0.104900 -6.661661980 27.650708750 11.490014 1 0 0 # N_MOF
1110 1 2 -0.104900 14.134989604 22.803958750 8.759964 0 0 0 # N_MOF
1111 1 2 -0.104900 12.064135129 20.816791250 13.025668 0 0 0 # N_MOF
1112 1 2 -0.104900 -8.732516455 25.663541250 15.755718 1 0 0 # N_MOF
1113 1 2 -0.335600 -5.961569962 26.255814100 9.919382 1 0 0 # N_MOF
1114 1 2 -0.335600 13.434897587 21.409064100 10.330596 0 0 0 # N_MOF
1115 1 2 -0.335600 11.364043112 22.211685900 14.596300 0 0 0 # N_MOF
1116 1 2 -0.335600 -8.032424437 27.058435900 14.185086 1 0 0 # N_MOF
1117 1 3 -0.556800 -11.929904512 20.124675350 13.198002 1 0 0 # O_MOF
1118 1 3 -0.556800 -11.479876814 24.971425350 15.583384 1 0 0 # O_MOF
1119 1 3 -0.556800 -9.409022339 28.342824650 11.317680 1 0 0 # O_MOF
1120 1 3 -0.556800 -9.859050036 23.496074650 8.932298 1 0 0 # O_MOF
1121 1 3 -0.518800 -9.824218275 19.684590450 13.735481 1 0 0 # O_MOF
1122 1 3 -0.518800 -13.585563050 24.531340450 15.045905 1 0 0 # O_MOF
1123 1 3 -0.518800 -11.514708575 28.782909550 10.780201 1 0 0 # O_MOF
1124 1 3 -0.518800 -7.753363800 23.936159550 9.469777 1 0 0 # O_MOF
1125 1 4 0.190400 12.805663474 27.158278950 10.200066 0 0 0 # C_MOF
1126 1 4 0.190400 -5.332335849 22.311528950 10.049913 1 0 0 # C_MOF
1127 1 4 0.190400 -7.403190324 21.309221050 14.315617 1 0 0 # C_MOF
1128 1 4 0.190400 10.734808998 26.155971050 14.465769 0 0 0 # C_MOF
1129 1 5 0.093300 13.652696723 27.185420750 9.771789 0 0 0 # H_MOF
1130 1 5 0.093300 -6.179369098 22.338670750 10.478190 1 0 0 # H_MOF
1131 1 5 0.093300 -8.250223573 21.282079250 14.743893 1 0 0 # H_MOF
1132 1 5 0.093300 11.581842248 26.128829250 14.037493 0 0 0 # H_MOF
1133 1 4 0.162800 -6.955543183 26.604780100 10.749488 1 0 0 # C_MOF
1134 1 4 0.162800 14.428870807 21.758030100 9.500490 0 0 0 # C_MOF
1135 1 4 0.162800 12.358016332 21.862719900 13.766194 0 0 0 # C_MOF
1136 1 4 0.162800 -9.026397658 26.709469900 15.015192 1 0 0 # C_MOF
1137 1 5 0.112600 -7.784958444 26.144338850 10.798117 1 0 0 # H_MOF
1138 1 5 0.112600 15.258286068 21.297588850 9.451861 0 0 0 # H_MOF
1139 1 5 0.112600 13.187431593 22.323161150 13.717565 0 0 0 # H_MOF
1140 1 5 0.112600 -9.855812919 27.169911150 15.063821 1 0 0 # H_MOF
1141 1 4 0.548200 -10.785950465 19.685559800 12.953151 1 0 0 # C_MOF
1142 1 4 0.548200 -12.623830861 24.532309800 15.828235 1 0 0 # C_MOF
1143 1 4 0.548200 -10.552976386 28.781940200 11.562531 1 0 0 # C_MOF
1144 1 4 0.548200 -8.715095990 23.935190200 8.687447 1 0 0 # C_MOF
1145 1 1 0.687100 9.302884191 19.946411885 20.249978 0 0 0 # Zn_MO
1146 1 1 0.687100 -10.112974467 24.793161885 17.062815 1 0 0 # Zn_MO
1147 1 1 0.687100 -12.183828942 28.521088115 21.328519 1 0 0 # Zn_MO
1148 1 1 0.687100 7.232029716 23.674338115 24.515682 0 0 0 # Zn_MO
1149 1 2 -0.278500 8.293335733 28.006460200 19.665662 0 0 0 # N_MOF
1150 1 2 -0.278500 -9.103426009 23.159710200 17.647131 1 0 0 # N_MOF
1151 1 2 -0.278500 -11.174280484 20.461039800 21.912835 1 0 0 # N_MOF
1152 1 2 -0.278500 6.222481258 25.307789800 23.931366 0 0 0 # N_MOF
1153 1 2 -0.104900 -10.803370930 27.650708750 20.021422 1 0 0 # N_MOF
1154 1 2 -0.104900 9.993280654 22.803958750 17.291372 0 0 0 # N_MOF
1155 1 2 -0.104900 7.922426179 20.816791250 21.557075 0 0 0 # N_MOF
1156 1 2 -0.104900 -12.874225405 25.663541250 24.287126 1 0 0 # N_MOF
1157 1 2 -0.335600 -10.103278912 26.255814100 18.450790 1 0 0 # N_MOF
1158 1 2 -0.335600 9.293188636 21.409064100 18.862004 0 0 0 # N_MOF
1159 1 2 -0.335600 7.222334161 22.211685900 23.127708 0 0 0 # N_MOF
1160 1 2 -0.335600 -12.174133387 27.058435900 22.716494 1 0 0 # N_MOF
1161 1 3 -0.556800 -16.071613462 20.124675350 21.729410 1 0 0 # O_MOF
1162 1 3 -0.556800 -15.621585764 24.971425350 24.114791 1 0 0 # O_MOF
1163 1 3 -0.556800 -13.550731289 28.342824650 19.849088 1 0 0 # O_MOF
1164 1 3 -0.556800 -14.000758987 23.496074650 17.463706 1 0 0 # O_MOF
1165 1 3 -0.518800 -13.965927226 19.684590450 22.266889 1 0 0 # O_MOF
1166 1 3 -0.518800 -17.727272000 24.531340450 23.577313 1 0 0 # O_MOF
1167 1 3 -0.518800 -15.656417525 28.782909550 19.311609 1 0 0 # O_MOF
1168 1 3 -0.518800 -11.895072751 23.936159550 18.001185 1 0 0 # O_MOF
1169 1 4 0.190400 8.663954523 27.158278950 18.731473 0 0 0 # C_MOF
1170 1 4 0.190400 -9.474044799 22.311528950 18.581320 1 0 0 # C_MOF
1171 1 4 0.190400 -11.544899274 21.309221050 22.847024 1 0 0 # C_MOF
1172 1 4 0.190400 6.593100048 26.155971050 22.997177 0 0 0 # C_MOF
1173 1 5 0.093300 9.510987773 27.185420750 18.303197 0 0 0 # H_MOF
1174 1 5 0.093300 -10.321078048 22.338670750 19.009597 1 0 0 # H_MOF
1175 1 5 0.093300 -12.391932524 21.282079250 23.275301 1 0 0 # H_MOF
1176 1 5 0.093300 7.440133298 26.128829250 22.568900 0 0 0 # H_MOF
1177 1 4 0.162800 -11.097252133 26.604780100 19.280896 1 0 0 # C_MOF
1178 1 4 0.162800 10.287161857 21.758030100 18.031898 0 0 0 # C_MOF
1179 1 4 0.162800 8.216307382 21.862719900 22.297602 0 0 0 # C_MOF
1180 1 4 0.162800 -13.168106608 26.709469900 23.546600 1 0 0 # C_MOF
1181 1 5 0.112600 -11.926667394 26.144338850 19.329525 1 0 0 # H_MOF
1182 1 5 0.112600 11.116577118 21.297588850 17.983269 0 0 0 # H_MOF
1183 1 5 0.112600 9.045722643 22.323161150 22.248973 0 0 0 # H_MOF
1184 1 5 0.112600 -13.997521869 27.169911150 23.595229 1 0 0 # H_MOF
1185 1 4 0.548200 -14.927659415 19.685559800 21.484558 1 0 0 # C_MOF
1186 1 4 0.548200 -16.765539811 24.532309800 24.359643 1 0 0 # C_MOF
1187 1 4 0.548200 -14.694685336 28.781940200 20.093939 1 0 0 # C_MOF
1188 1 4 0.548200 -12.856804940 23.935190200 17.218855 1 0 0 # C_MOF
1189 2 6 1.000000 2.386045525 4.846750000 3.726434 0 0 0 # cdc
1190 2 7 -0.500000 3.548045525 4.846750000 3.726434 0 0 0 # cdo
1191 2 7 -0.500000 1.224045525 4.846750000 3.726434 0 0 0 # cdo
1192 3 6 1.000000 -1.755663425 4.846750000 12.257841 0 0 0 # cdc
1193 3 7 -0.500000 -0.593663425 4.846750000 12.257841 0 0 0 # cdo
1194 3 7 -0.500000 -2.917663425 4.846750000 12.257841 0 0 0 # cdo
1195 4 6 1.000000 -5.897372375 4.846750000 20.789249 0 0 0 # cdc
1196 4 7 -0.500000 -4.735372375 4.846750000 20.789249 0 0 0 # cdo
1197 4 7 -0.500000 -7.059372375 4.846750000 20.789249 0 0 0 # cdo
1198 5 6 1.000000 2.386045525 14.540250000 3.726434 0 0 0 # cdc
1199 5 7 -0.500000 3.548045525 14.540250000 3.726434 0 0 0 # cdo
1200 5 7 -0.500000 1.224045525 14.540250000 3.726434 0 0 0 # cdo
1201 6 6 1.000000 -1.755663425 14.540250000 12.257841 0 0 0 # cdc
1202 6 7 -0.500000 -0.593663425 14.540250000 12.257841 0 0 0 # cdo
1203 6 7 -0.500000 -2.917663425 14.540250000 12.257841 0 0 0 # cdo
1204 7 6 1.000000 -5.897372375 14.540250000 20.789249 0 0 0 # cdc
1205 7 7 -0.500000 -4.735372375 14.540250000 20.789249 0 0 0 # cdo
1206 7 7 -0.500000 -7.059372375 14.540250000 20.789249 0 0 0 # cdo
1207 8 6 1.000000 2.386045525 24.233750000 3.726434 0 0 0 # cdc
1208 8 7 -0.500000 3.548045525 24.233750000 3.726434 0 0 0 # cdo
1209 8 7 -0.500000 1.224045525 24.233750000 3.726434 0 0 0 # cdo
1210 9 6 1.000000 -1.755663425 24.233750000 12.257841 0 0 0 # cdc
1211 9 7 -0.500000 -0.593663425 24.233750000 12.257841 0 0 0 # cdo
1212 9 7 -0.500000 -2.917663425 24.233750000 12.257841 0 0 0 # cdo
1213 10 6 1.000000 -5.897372375 24.233750000 20.789249 0 0 0 # cdc
1214 10 7 -0.500000 -4.735372375 24.233750000 20.789249 0 0 0 # cdo
1215 10 7 -0.500000 -7.059372375 24.233750000 20.789249 0 0 0 # cdo
1216 11 6 1.000000 11.299845525 4.846750000 3.726434 0 0 0 # cdc
1217 11 7 -0.500000 12.461845525 4.846750000 3.726434 0 0 0 # cdo
1218 11 7 -0.500000 10.137845525 4.846750000 3.726434 0 0 0 # cdo
1219 12 6 1.000000 7.158136575 4.846750000 12.257841 0 0 0 # cdc
1220 12 7 -0.500000 8.320136575 4.846750000 12.257841 0 0 0 # cdo
1221 12 7 -0.500000 5.996136575 4.846750000 12.257841 0 0 0 # cdo
1222 13 6 1.000000 3.016427625 4.846750000 20.789249 0 0 0 # cdc
1223 13 7 -0.500000 4.178427625 4.846750000 20.789249 0 0 0 # cdo
1224 13 7 -0.500000 1.854427625 4.846750000 20.789249 0 0 0 # cdo
1225 14 6 1.000000 11.299845525 14.540250000 3.726434 0 0 0 # cdc
1226 14 7 -0.500000 12.461845525 14.540250000 3.726434 0 0 0 # cdo
1227 14 7 -0.500000 10.137845525 14.540250000 3.726434 0 0 0 # cdo
1228 15 6 1.000000 7.158136575 14.540250000 12.257841 0 0 0 # cdc
1229 15 7 -0.500000 8.320136575 14.540250000 12.257841 0 0 0 # cdo
1230 15 7 -0.500000 5.996136575 14.540250000 12.257841 0 0 0 # cdo
1231 16 6 1.000000 3.016427625 14.540250000 20.789249 0 0 0 # cdc
1232 16 7 -0.500000 4.178427625 14.540250000 20.789249 0 0 0 # cdo
1233 16 7 -0.500000 1.854427625 14.540250000 20.789249 0 0 0 # cdo
1234 17 6 1.000000 11.299845525 24.233750000 3.726434 0 0 0 # cdc
1235 17 7 -0.500000 12.461845525 24.233750000 3.726434 0 0 0 # cdo
1236 17 7 -0.500000 10.137845525 24.233750000 3.726434 0 0 0 # cdo
1237 18 6 1.000000 7.158136575 24.233750000 12.257841 0 0 0 # cdc
1238 18 7 -0.500000 8.320136575 24.233750000 12.257841 0 0 0 # cdo
1239 18 7 -0.500000 5.996136575 24.233750000 12.257841 0 0 0 # cdo
1240 19 6 1.000000 3.016427625 24.233750000 20.789249 0 0 0 # cdc
1241 19 7 -0.500000 4.178427625 24.233750000 20.789249 0 0 0 # cdo
1242 19 7 -0.500000 1.854427625 24.233750000 20.789249 0 0 0 # cdo
1243 20 6 1.000000 -6.527754475 4.846750000 3.726434 1 0 0 # cdc
1244 20 7 -0.500000 -5.365754475 4.846750000 3.726434 1 0 0 # cdo
1245 20 7 -0.500000 -7.689754475 4.846750000 3.726434 1 0 0 # cdo
1246 21 6 1.000000 -10.669463425 4.846750000 12.257841 1 0 0 # cdc
1247 21 7 -0.500000 -9.507463425 4.846750000 12.257841 1 0 0 # cdo
1248 21 7 -0.500000 -11.831463425 4.846750000 12.257841 1 0 0 # cdo
1249 22 6 1.000000 -14.811172375 4.846750000 20.789249 1 0 0 # cdc
1250 22 7 -0.500000 -13.649172375 4.846750000 20.789249 1 0 0 # cdo
1251 22 7 -0.500000 -15.973172375 4.846750000 20.789249 1 0 0 # cdo
1252 23 6 1.000000 -6.527754475 14.540250000 3.726434 1 0 0 # cdc
1253 23 7 -0.500000 -5.365754475 14.540250000 3.726434 1 0 0 # cdo
1254 23 7 -0.500000 -7.689754475 14.540250000 3.726434 1 0 0 # cdo
1255 24 6 1.000000 -10.669463425 14.540250000 12.257841 1 0 0 # cdc
1256 24 7 -0.500000 -9.507463425 14.540250000 12.257841 1 0 0 # cdo
1257 24 7 -0.500000 -11.831463425 14.540250000 12.257841 1 0 0 # cdo
1258 25 6 1.000000 -14.811172375 14.540250000 20.789249 1 0 0 # cdc
1259 25 7 -0.500000 -13.649172375 14.540250000 20.789249 1 0 0 # cdo
1260 25 7 -0.500000 -15.973172375 14.540250000 20.789249 1 0 0 # cdo
1261 26 6 1.000000 -6.527754475 24.233750000 3.726434 1 0 0 # cdc
1262 26 7 -0.500000 -5.365754475 24.233750000 3.726434 1 0 0 # cdo
1263 26 7 -0.500000 -7.689754475 24.233750000 3.726434 1 0 0 # cdo
1264 27 6 1.000000 -10.669463425 24.233750000 12.257841 1 0 0 # cdc
1265 27 7 -0.500000 -9.507463425 24.233750000 12.257841 1 0 0 # cdo
1266 27 7 -0.500000 -11.831463425 24.233750000 12.257841 1 0 0 # cdo
1267 28 6 1.000000 -14.811172375 24.233750000 20.789249 1 0 0 # cdc
1268 28 7 -0.500000 -13.649172375 24.233750000 20.789249 1 0 0 # cdo
1269 28 7 -0.500000 -15.973172375 24.233750000 20.789249 1 0 0 # cdo

Bonds

     1   1      1    269
     2   1      1     14
     3   2      1     17
     4   1      1     11
     5   2      1    287
     6   1      2      6
     7   1      2     13
     8   2      2    106
     9   1      2    100
    10   2      2     24
    11   1      3    139
    12   1      3     16
    13   2      3     19
    14   1      3      9
    15   2      3    153
    16   1      4      8
    17   1      4     15
    18   2      4     64
    19   1      4     54
    20   2      4     22
    21   3      5     25
    22   4      5    801
    23   1    133      5
    24   3      6     26
    25   4      6    406
    26   3      7     27
    27   4      7    407
    28   1    267      7
    29   3      8     28
    30   4      8    804
    31   3      9     33
    32   4      9    401
    33   3     10     34
    34   1     92     10
    35   4     10    798
    36   3     11     35
    37   4     11    799
    38   3     12     36
    39   1     46     12
    40   4     12    404
    41   3     13    421
    42   3     13     33
    43   3     14    818
    44   3     14     34
    45   3     15    819
    46   3     15     35
    47   3     16    424
    48   3     16     36
    49   5     17     41
    50   5     18     42
    51   2     46     18
    52   5     19     43
    53   5     20     44
    54   2     92     20
    55   5     21     41
    56   2    267     21
    57   5     22     42
    58   5     23     43
    59   2    133     23
    60   5     24     44
    61   6     25     29
    62   3    805     25
    63   6     26     30
    64   3    410     26
    65   6     27     31
    66   3    411     27
    67   6     28     32
    68   3    808     28
    69   6     33     37
    70   6     34     38
    71   6     35     39
    72   6     36     40
    73   7     41    307
    74   7     42     88
    75   7     43    173
    76   7     44    130
    77   1     45    313
    78   1     45     58
    79   2     45     61
    80   1     45     55
    81   2     45    331
    82   1     46     50
    83   1     46     57
    84   2     46     68
    85   1     47    183
    86   1     47     60
    87   2     47     63
    88   1     47     53
    89   2     47    197
    90   1     48     52
    91   1     48     59
    92   2     48    108
    93   1     48     98
    94   2     48     66
    95   3     49     69
    96   4     49    845
    97   1    177     49
    98   3     50     70
    99   4     50    450
   100   3     51     71
   101   4     51    451
   102   1    311     51
   103   3     52     72
   104   4     52    848
   105   3     53     77
   106   4     53    445
   107   3     54     78
   108   4     54    842
   109   3     55     79
   110   4     55    843
   111   3     56     80
   112   1     90     56
   113   4     56    448
   114   3     57    465
   115   3     57     77
   116   3     58    862
   117   3     58     78
   118   3     59    863
   119   3     59     79
   120   3     60    468
   121   3     60     80
   122   5     61     85
   123   5     62     86
   124   2     90     62
   125   5     63     87
   126   5     64     88
   127   5     65     85
   128   2    311     65
   129   5     66     86
   130   5     67     87
   131   2    177     67
   132   5     68     88
   133   6     69     73
   134   3    849     69
   135   6     70     74
   136   3    454     70
   137   6     71     75
   138   3    455     71
   139   6     72     76
   140   3    852     72
   141   6     77     81
   142   6     78     82
   143   6     79     83
   144   6     80     84
   145   7     85    351
   146   7     86    132
   147   7     87    217
   148   1     89    357
   149   1     89    102
   150   2     89    105
   151   1     89     99
   152   2     89    375
   153   1     90     94
   154   1     90    101
   155   2     90    112
   156   1     91    227
   157   1     91    104
   158   2     91    107
   159   1     91     97
   160   2     91    241
   161   1     92     96
   162   1     92    103
   163   2     92    110
   164   3     93    113
   165   4     93    889
   166   1    221     93
   167   3     94    114
   168   4     94    494
   169   3     95    115
   170   4     95    495
   171   1    355     95
   172   3     96    116
   173   4     96    892
   174   3     97    121
   175   4     97    489
   176   3     98    122
   177   4     98    886
   178   3     99    123
   179   4     99    887
   180   3    100    124
   181   4    100    492
   182   3    101    509
   183   3    101    121
   184   3    102    906
   185   3    102    122
   186   3    103    907
   187   3    103    123
   188   3    104    512
   189   3    104    124
   190   5    105    129
   191   5    106    130
   192   5    107    131
   193   5    108    132
   194   5    109    129
   195   2    355    109
   196   5    110    130
   197   5    111    131
   198   2    221    111
   199   5    112    132
   200   6    113    117
   201   3    893    113
   202   6    114    118
   203   3    498    114
   204   6    115    119
   205   3    499    115
   206   6    116    120
   207   3    896    116
   208   6    121    125
   209   6    122    126
   210   6    123    127
   211   6    124    128
   212   7    129    395
   213   7    131    261
   214   1    133    146
   215   2    133    149
   216   1    133    143
   217   1    134    138
   218   1    134    145
   219   2    134    238
   220   1    134    232
   221   2    134    156
   222   1    135    271
   223   1    135    148
   224   2    135    151
   225   1    135    141
   226   2    135    285
   227   1    136    140
   228   1    136    147
   229   2    136    196
   230   1    136    186
   231   2    136    154
   232   3    137    157
   233   4    137    933
   234   1    265    137
   235   3    138    158
   236   4    138    538
   237   3    139    159
   238   4    139    539
   239   3    140    160
   240   4    140    936
   241   3    141    165
   242   4    141    533
   243   3    142    166
   244   1    224    142
   245   4    142    930
   246   3    143    167
   247   4    143    931
   248   3    144    168
   249   1    178    144
   250   4    144    536
   251   3    145    553
   252   3    145    165
   253   3    146    950
   254   3    146    166
   255   3    147    951
   256   3    147    167
   257   3    148    556
   258   3    148    168
   259   5    149    173
   260   5    150    174
   261   2    178    150
   262   5    151    175
   263   5    152    176
   264   2    224    152
   265   5    153    173
   266   5    154    174
   267   5    155    175
   268   2    265    155
   269   5    156    176
   270   6    157    161
   271   3    937    157
   272   6    158    162
   273   3    542    158
   274   6    159    163
   275   3    543    159
   276   6    160    164
   277   3    940    160
   278   6    165    169
   279   6    166    170
   280   6    167    171
   281   6    168    172
   282   7    174    220
   283   7    175    305
   284   7    176    262
   285   1    177    190
   286   2    177    193
   287   1    177    187
   288   1    178    182
   289   1    178    189
   290   2    178    200
   291   1    179    315
   292   1    179    192
   293   2    179    195
   294   1    179    185
   295   2    179    329
   296   1    180    184
   297   1    180    191
   298   2    180    240
   299   1    180    230
   300   2    180    198
   301   3    181    201
   302   4    181    977
   303   1    309    181
   304   3    182    202
   305   4    182    582
   306   3    183    203
   307   4    183    583
   308   3    184    204
   309   4    184    980
   310   3    185    209
   311   4    185    577
   312   3    186    210
   313   4    186    974
   314   3    187    211
   315   4    187    975
   316   3    188    212
   317   1    222    188
   318   4    188    580
   319   3    189    597
   320   3    189    209
   321   3    190    994
   322   3    190    210
   323   3    191    995
   324   3    191    211
   325   3    192    600
   326   3    192    212
   327   5    193    217
   328   5    194    218
   329   2    222    194
   330   5    195    219
   331   5    196    220
   332   5    197    217
   333   5    198    218
   334   5    199    219
   335   2    309    199
   336   5    200    220
   337   6    201    205
   338   3    981    201
   339   6    202    206
   340   3    586    202
   341   6    203    207
   342   3    587    203
   343   6    204    208
   344   3    984    204
   345   6    209    213
   346   6    210    214
   347   6    211    215
   348   6    212    216
   349   7    218    264
   350   7    219    349
   351   1    221    234
   352   2    221    237
   353   1    221    231
   354   1    222    226
   355   1    222    233
   356   2    222    244
   357   1    223    359
   358   1    223    236
   359   2    223    239
   360   1    223    229
   361   2    223    373
   362   1    224    228
   363   1    224    235
   364   2    224    242
   365   3    225    245
   366   4    225   1021
   367   1    353    225
   368   3    226    246
   369   4    226    626
   370   3    227    247
   371   4    227    627
   372   3    228    248
   373   4    228   1024
   374   3    229    253
   375   4    229    621
   376   3    230    254
   377   4    230   1018
   378   3    231    255
   379   4    231   1019
   380   3    232    256
   381   4    232    624
   382   3    233    641
   383   3    233    253
   384   3    234   1038
   385   3    234    254
   386   3    235   1039
   387   3    235    255
   388   3    236    644
   389   3    236    256
   390   5    237    261
   391   5    238    262
   392   5    239    263
   393   5    240    264
   394   5    241    261
   395   5    242    262
   396   5    243    263
   397   2    353    243
   398   5    244    264
   399   6    245    249
   400   3   1025    245
   401   6    246    250
   402   3    630    246
   403   6    247    251
   404   3    631    247
   405   6    248    252
   406   3   1028    248
   407   6    253    257
   408   6    254    258
   409   6    255    259
   410   6    256    260
   411   7    263    393
   412   1    265    278
   413   2    265    281
   414   1    265    275
   415   1    266    270
   416   1    266    277
   417   2    266    370
   418   1    266    364
   419   2    266    288
   420   1    267    280
   421   2    267    283
   422   1    267    273
   423   1    268    272
   424   1    268    279
   425   2    268    328
   426   1    268    318
   427   2    268    286
   428   3    269    289
   429   4    269   1065
   430   3    270    290
   431   4    270    670
   432   3    271    291
   433   4    271    671
   434   3    272    292
   435   4    272   1068
   436   3    273    297
   437   4    273    665
   438   3    274    298
   439   1    356    274
   440   4    274   1062
   441   3    275    299
   442   4    275   1063
   443   3    276    300
   444   1    310    276
   445   4    276    668
   446   3    277    685
   447   3    277    297
   448   3    278   1082
   449   3    278    298
   450   3    279   1083
   451   3    279    299
   452   3    280    688
   453   3    280    300
   454   5    281    305
   455   5    282    306
   456   2    310    282
   457   5    283    307
   458   5    284    308
   459   2    356    284
   460   5    285    305
   461   5    286    306
   462   5    287    307
   463   5    288    308
   464   6    289    293
   465   3   1069    289
   466   6    290    294
   467   3    674    290
   468   6    291    295
   469   3    675    291
   470   6    292    296
   471   3   1072    292
   472   6    297    301
   473   6    298    302
   474   6    299    303
   475   6    300    304
   476   7    306    352
   477   7    308    394
   478   1    309    322
   479   2    309    325
   480   1    309    319
   481   1    310    314
   482   1    310    321
   483   2    310    332
   484   1    311    324
   485   2    311    327
   486   1    311    317
   487   1    312    316
   488   1    312    323
   489   2    312    372
   490   1    312    362
   491   2    312    330
   492   3    313    333
   493   4    313   1109
   494   3    314    334
   495   4    314    714
   496   3    315    335
   497   4    315    715
   498   3    316    336
   499   4    316   1112
   500   3    317    341
   501   4    317    709
   502   3    318    342
   503   4    318   1106
   504   3    319    343
   505   4    319   1107
   506   3    320    344
   507   1    354    320
   508   4    320    712
   509   3    321    729
   510   3    321    341
   511   3    322   1126
   512   3    322    342
   513   3    323   1127
   514   3    323    343
   515   3    324    732
   516   3    324    344
   517   5    325    349
   518   5    326    350
   519   2    354    326
   520   5    327    351
   521   5    328    352
   522   5    329    349
   523   5    330    350
   524   5    331    351
   525   5    332    352
   526   6    333    337
   527   3   1113    333
   528   6    334    338
   529   3    718    334
   530   6    335    339
   531   3    719    335
   532   6    336    340
   533   3   1116    336
   534   6    341    345
   535   6    342    346
   536   6    343    347
   537   6    344    348
   538   7    350    396
   539   1    353    366
   540   2    353    369
   541   1    353    363
   542   1    354    358
   543   1    354    365
   544   2    354    376
   545   1    355    368
   546   2    355    371
   547   1    355    361
   548   1    356    360
   549   1    356    367
   550   2    356    374
   551   3    357    377
   552   4    357   1153
   553   3    358    378
   554   4    358    758
   555   3    359    379
   556   4    359    759
   557   3    360    380
   558   4    360   1156
   559   3    361    385
   560   4    361    753
   561   3    362    386
   562   4    362   1150
   563   3    363    387
   564   4    363   1151
   565   3    364    388
   566   4    364    756
   567   3    365    773
   568   3    365    385
   569   3    366   1170
   570   3    366    386
   571   3    367   1171
   572   3    367    387
   573   3    368    776
   574   3    368    388
   575   5    369    393
   576   5    370    394
   577   5    371    395
   578   5    372    396
   579   5    373    393
   580   5    374    394
   581   5    375    395
   582   5    376    396
   583   6    377    381
   584   3   1157    377
   585   6    378    382
   586   3    762    378
   587   6    379    383
   588   3    763    379
   589   6    380    384
   590   3   1160    380
   591   6    385    389
   592   6    386    390
   593   6    387    391
   594   6    388    392
   595   1    397    665
   596   1    397    410
   597   2    397    413
   598   1    397    407
   599   2    397    683
   600   1    398    402
   601   1    398    409
   602   2    398    502
   603   1    398    496
   604   2    398    420
   605   1    399    535
   606   1    399    412
   607   2    399    415
   608   1    399    405
   609   2    399    549
   610   1    400    404
   611   1    400    411
   612   2    400    460
   613   1    400    450
   614   2    400    418
   615   3    401    421
   616   1    529    401
   617   3    402    422
   618   4    402    802
   619   3    403    423
   620   4    403    803
   621   1    663    403
   622   3    404    424
   623   3    405    429
   624   4    405    797
   625   3    406    430
   626   1    488    406
   627   3    407    431
   628   3    408    432
   629   1    442    408
   630   4    408    800
   631   3    409    817
   632   3    409    429
   633   3    410    430
   634   3    411    431
   635   3    412    820
   636   3    412    432
   637   5    413    437
   638   5    414    438
   639   2    442    414
   640   5    415    439
   641   5    416    440
   642   2    488    416
   643   5    417    437
   644   2    663    417
   645   5    418    438
   646   5    419    439
   647   2    529    419
   648   5    420    440
   649   6    421    425
   650   6    422    426
   651   3    806    422
   652   6    423    427
   653   3    807    423
   654   6    424    428
   655   6    429    433
   656   6    430    434
   657   6    431    435
   658   6    432    436
   659   7    437    703
   660   7    438    484
   661   7    439    569
   662   7    440    526
   663   1    441    709
   664   1    441    454
   665   2    441    457
   666   1    441    451
   667   2    441    727
   668   1    442    446
   669   1    442    453
   670   2    442    464
   671   1    443    579
   672   1    443    456
   673   2    443    459
   674   1    443    449
   675   2    443    593
   676   1    444    448
   677   1    444    455
   678   2    444    504
   679   1    444    494
   680   2    444    462
   681   3    445    465
   682   1    573    445
   683   3    446    466
   684   4    446    846
   685   3    447    467
   686   4    447    847
   687   1    707    447
   688   3    448    468
   689   3    449    473
   690   4    449    841
   691   3    450    474
   692   3    451    475
   693   3    452    476
   694   1    486    452
   695   4    452    844
   696   3    453    861
   697   3    453    473
   698   3    454    474
   699   3    455    475
   700   3    456    864
   701   3    456    476
   702   5    457    481
   703   5    458    482
   704   2    486    458
   705   5    459    483
   706   5    460    484
   707   5    461    481
   708   2    707    461
   709   5    462    482
   710   5    463    483
   711   2    573    463
   712   5    464    484
   713   6    465    469
   714   6    466    470
   715   3    850    466
   716   6    467    471
   717   3    851    467
   718   6    468    472
   719   6    473    477
   720   6    474    478
   721   6    475    479
   722   6    476    480
   723   7    481    747
   724   7    482    528
   725   7    483    613
   726   1    485    753
   727   1    485    498
   728   2    485    501
   729   1    485    495
   730   2    485    771
   731   1    486    490
   732   1    486    497
   733   2    486    508
   734   1    487    623
   735   1    487    500
   736   2    487    503
   737   1    487    493
   738   2    487    637
   739   1    488    492
   740   1    488    499
   741   2    488    506
   742   3    489    509
   743   1    617    489
   744   3    490    510
   745   4    490    890
   746   3    491    511
   747   4    491    891
   748   1    751    491
   749   3    492    512
   750   3    493    517
   751   4    493    885
   752   3    494    518
   753   3    495    519
   754   3    496    520
   755   4    496    888
   756   3    497    905
   757   3    497    517
   758   3    498    518
   759   3    499    519
   760   3    500    908
   761   3    500    520
   762   5    501    525
   763   5    502    526
   764   5    503    527
   765   5    504    528
   766   5    505    525
   767   2    751    505
   768   5    506    526
   769   5    507    527
   770   2    617    507
   771   5    508    528
   772   6    509    513
   773   6    510    514
   774   3    894    510
   775   6    511    515
   776   3    895    511
   777   6    512    516
   778   6    517    521
   779   6    518    522
   780   6    519    523
   781   6    520    524
   782   7    525    791
   783   7    527    657
   784   1    529    542
   785   2    529    545
   786   1    529    539
   787   1    530    534
   788   1    530    541
   789   2    530    634
   790   1    530    628
   791   2    530    552
   792   1    531    667
   793   1    531    544
   794   2    531    547
   795   1    531    537
   796   2    531    681
   797   1    532    536
   798   1    532    543
   799   2    532    592
   800   1    532    582
   801   2    532    550
   802   3    533    553
   803   1    661    533
   804   3    534    554
   805   4    534    934
   806   3    535    555
   807   4    535    935
   808   3    536    556
   809   3    537    561
   810   4    537    929
   811   3    538    562
   812   1    620    538
   813   3    539    563
   814   3    540    564
   815   1    574    540
   816   4    540    932
   817   3    541    949
   818   3    541    561
   819   3    542    562
   820   3    543    563
   821   3    544    952
   822   3    544    564
   823   5    545    569
   824   5    546    570
   825   2    574    546
   826   5    547    571
   827   5    548    572
   828   2    620    548
   829   5    549    569
   830   5    550    570
   831   5    551    571
   832   2    661    551
   833   5    552    572
   834   6    553    557
   835   6    554    558
   836   3    938    554
   837   6    555    559
   838   3    939    555
   839   6    556    560
   840   6    561    565
   841   6    562    566
   842   6    563    567
   843   6    564    568
   844   7    570    616
   845   7    571    701
   846   7    572    658
   847   1    573    586
   848   2    573    589
   849   1    573    583
   850   1    574    578
   851   1    574    585
   852   2    574    596
   853   1    575    711
   854   1    575    588
   855   2    575    591
   856   1    575    581
   857   2    575    725
   858   1    576    580
   859   1    576    587
   860   2    576    636
   861   1    576    626
   862   2    576    594
   863   3    577    597
   864   1    705    577
   865   3    578    598
   866   4    578    978
   867   3    579    599
   868   4    579    979
   869   3    580    600
   870   3    581    605
   871   4    581    973
   872   3    582    606
   873   3    583    607
   874   3    584    608
   875   1    618    584
   876   4    584    976
   877   3    585    993
   878   3    585    605
   879   3    586    606
   880   3    587    607
   881   3    588    996
   882   3    588    608
   883   5    589    613
   884   5    590    614
   885   2    618    590
   886   5    591    615
   887   5    592    616
   888   5    593    613
   889   5    594    614
   890   5    595    615
   891   2    705    595
   892   5    596    616
   893   6    597    601
   894   6    598    602
   895   3    982    598
   896   6    599    603
   897   3    983    599
   898   6    600    604
   899   6    605    609
   900   6    606    610
   901   6    607    611
   902   6    608    612
   903   7    614    660
   904   7    615    745
   905   1    617    630
   906   2    617    633
   907   1    617    627
   908   1    618    622
   909   1    618    629
   910   2    618    640
   911   1    619    755
   912   1    619    632
   913   2    619    635
   914   1    619    625
   915   2    619    769
   916   1    620    624
   917   1    620    631
   918   2    620    638
   919   3    621    641
   920   1    749    621
   921   3    622    642
   922   4    622   1022
   923   3    623    643
   924   4    623   1023
   925   3    624    644
   926   3    625    649
   927   4    625   1017
   928   3    626    650
   929   3    627    651
   930   3    628    652
   931   4    628   1020
   932   3    629   1037
   933   3    629    649
   934   3    630    650
   935   3    631    651
   936   3    632   1040
   937   3    632    652
   938   5    633    657
   939   5    634    658
   940   5    635    659
   941   5    636    660
   942   5    637    657
   943   5    638    658
   944   5    639    659
   945   2    749    639
   946   5    640    660
   947   6    641    645
   948   6    642    646
   949   3   1026    642
   950   6    643    647
   951   3   1027    643
   952   6    644    648
   953   6    649    653
   954   6    650    654
   955   6    651    655
   956   6    652    656
   957   7    659    789
   958   1    661    674
   959   2    661    677
   960   1    661    671
   961   1    662    666
   962   1    662    673
   963   2    662    766
   964   1    662    760
   965   2    662    684
   966   1    663    676
   967   2    663    679
   968   1    663    669
   969   1    664    668
   970   1    664    675
   971   2    664    724
   972   1    664    714
   973   2    664    682
   974   3    665    685
   975   3    666    686
   976   4    666   1066
   977   3    667    687
   978   4    667   1067
   979   3    668    688
   980   3    669    693
   981   4    669   1061
   982   3    670    694
   983   1    752    670
   984   3    671    695
   985   3    672    696
   986   1    706    672
   987   4    672   1064
   988   3    673   1081
   989   3    673    693
   990   3    674    694
   991   3    675    695
   992   3    676   1084
   993   3    676    696
   994   5    677    701
   995   5    678    702
   996   2    706    678
   997   5    679    703
   998   5    680    704
   999   2    752    680
  1000   5    681    701
  1001   5    682    702
  1002   5    683    703
  1003   5    684    704
  1004   6    685    689
  1005   6    686    690
  1006   3   1070    686
  1007   6    687    691
  1008   3   1071    687
  1009   6    688    692
  1010   6    693    697
  1011   6    694    698
  1012   6    695    699
  1013   6    696    700
  1014   7    702    748
  1015   7    704    790
  1016   1    705    718
  1017   2    705    721
  1018   1    705    715
  1019   1    706    710
  1020   1    706    717
  1021   2    706    728
  1022   1    707    720
  1023   2    707    723
  1024   1    707    713
  1025   1    708    712
  1026   1    708    719
  1027   2    708    768
  1028   1    708    758
  1029   2    708    726
  1030   3    709    729
  1031   3    710    730
  1032   4    710   1110
  1033   3    711    731
  1034   4    711   1111
  1035   3    712    732
  1036   3    713    737
  1037   4    713   1105
  1038   3    714    738
  1039   3    715    739
  1040   3    716    740
  1041   1    750    716
  1042   4    716   1108
  1043   3    717   1125
  1044   3    717    737
  1045   3    718    738
  1046   3    719    739
  1047   3    720   1128
  1048   3    720    740
  1049   5    721    745
  1050   5    722    746
  1051   2    750    722
  1052   5    723    747
  1053   5    724    748
  1054   5    725    745
  1055   5    726    746
  1056   5    727    747
  1057   5    728    748
  1058   6    729    733
  1059   6    730    734
  1060   3   1114    730
  1061   6    731    735
  1062   3   1115    731
  1063   6    732    736
  1064   6    737    741
  1065   6    738    742
  1066   6    739    743
  1067   6    740    744
  1068   7    746    792
  1069   1    749    762
  1070   2    749    765
  1071   1    749    759
  1072   1    750    754
  1073   1    750    761
  1074   2    750    772
  1075   1    751    764
  1076   2    751    767
  1077   1    751    757
  1078   1    752    756
  1079   1    752    763
  1080   2    752    770
  1081   3    753    773
  1082   3    754    774
  1083   4    754   1154
  1084   3    755    775
  1085   4    755   1155
  1086   3    756    776
  1087   3    757    781
  1088   4    757   1149
  1089   3    758    782
  1090   3    759    783
  1091   3    760    784
  1092   4    760   1152
  1093   3    761   1169
  1094   3    761    781
  1095   3    762    782
  1096   3    763    783
  1097   3    764   1172
  1098   3    764    784
  1099   5    765    789
  1100   5    766    790
  1101   5    767    791
  1102   5    768    792
  1103   5    769    789
  1104   5    770    790
  1105   5    771    791
  1106   5    772    792
  1107   6    773    777
  1108   6    774    778
  1109   3   1158    774
  1110   6    775    779
  1111   3   1159    775
  1112   6    776    780
  1113   6    781    785
  1114   6    782    786
  1115   6    783    787
  1116   6    784    788
  1117   1    793   1061
  1118   1    793    806
  1119   2    793    809
  1120   1    793    803
  1121   2    793   1079
  1122   1    794    798
  1123   1    794    805
  1124   2    794    898
  1125   1    794    892
  1126   2    794    816
  1127   1    795    931
  1128   1    795    808
  1129   2    795    811
  1130   1    795    801
  1131   2    795    945
  1132   1    796    800
  1133   1    796    807
  1134   2    796    856
  1135   1    796    846
  1136   2    796    814
  1137   3    797    817
  1138   1    925    797
  1139   3    798    818
  1140   3    799    819
  1141   1   1059    799
  1142   3    800    820
  1143   3    801    825
  1144   3    802    826
  1145   1    884    802
  1146   3    803    827
  1147   3    804    828
  1148   1    838    804
  1149   3    805    825
  1150   3    806    826
  1151   3    807    827
  1152   3    808    828
  1153   5    809    833
  1154   5    810    834
  1155   2    838    810
  1156   5    811    835
  1157   5    812    836
  1158   2    884    812
  1159   5    813    833
  1160   2   1059    813
  1161   5    814    834
  1162   5    815    835
  1163   2    925    815
  1164   5    816    836
  1165   6    817    821
  1166   6    818    822
  1167   6    819    823
  1168   6    820    824
  1169   6    825    829
  1170   6    826    830
  1171   6    827    831
  1172   6    828    832
  1173   7    833   1099
  1174   7    834    880
  1175   7    835    965
  1176   7    836    922
  1177   1    837   1105
  1178   1    837    850
  1179   2    837    853
  1180   1    837    847
  1181   2    837   1123
  1182   1    838    842
  1183   1    838    849
  1184   2    838    860
  1185   1    839    975
  1186   1    839    852
  1187   2    839    855
  1188   1    839    845
  1189   2    839    989
  1190   1    840    844
  1191   1    840    851
  1192   2    840    900
  1193   1    840    890
  1194   2    840    858
  1195   3    841    861
  1196   1    969    841
  1197   3    842    862
  1198   3    843    863
  1199   1   1103    843
  1200   3    844    864
  1201   3    845    869
  1202   3    846    870
  1203   3    847    871
  1204   3    848    872
  1205   1    882    848
  1206   3    849    869
  1207   3    850    870
  1208   3    851    871
  1209   3    852    872
  1210   5    853    877
  1211   5    854    878
  1212   2    882    854
  1213   5    855    879
  1214   5    856    880
  1215   5    857    877
  1216   2   1103    857
  1217   5    858    878
  1218   5    859    879
  1219   2    969    859
  1220   5    860    880
  1221   6    861    865
  1222   6    862    866
  1223   6    863    867
  1224   6    864    868
  1225   6    869    873
  1226   6    870    874
  1227   6    871    875
  1228   6    872    876
  1229   7    877   1143
  1230   7    878    924
  1231   7    879   1009
  1232   1    881   1149
  1233   1    881    894
  1234   2    881    897
  1235   1    881    891
  1236   2    881   1167
  1237   1    882    886
  1238   1    882    893
  1239   2    882    904
  1240   1    883   1019
  1241   1    883    896
  1242   2    883    899
  1243   1    883    889
  1244   2    883   1033
  1245   1    884    888
  1246   1    884    895
  1247   2    884    902
  1248   3    885    905
  1249   1   1013    885
  1250   3    886    906
  1251   3    887    907
  1252   1   1147    887
  1253   3    888    908
  1254   3    889    913
  1255   3    890    914
  1256   3    891    915
  1257   3    892    916
  1258   3    893    913
  1259   3    894    914
  1260   3    895    915
  1261   3    896    916
  1262   5    897    921
  1263   5    898    922
  1264   5    899    923
  1265   5    900    924
  1266   5    901    921
  1267   2   1147    901
  1268   5    902    922
  1269   5    903    923
  1270   2   1013    903
  1271   5    904    924
  1272   6    905    909
  1273   6    906    910
  1274   6    907    911
  1275   6    908    912
  1276   6    913    917
  1277   6    914    918
  1278   6    915    919
  1279   6    916    920
  1280   7    921   1187
  1281   7    923   1053
  1282   1    925    938
  1283   2    925    941
  1284   1    925    935
  1285   1    926    930
  1286   1    926    937
  1287   2    926   1030
  1288   1    926   1024
  1289   2    926    948
  1290   1    927   1063
  1291   1    927    940
  1292   2    927    943
  1293   1    927    933
  1294   2    927   1077
  1295   1    928    932
  1296   1    928    939
  1297   2    928    988
  1298   1    928    978
  1299   2    928    946
  1300   3    929    949
  1301   1   1057    929
  1302   3    930    950
  1303   3    931    951
  1304   3    932    952
  1305   3    933    957
  1306   3    934    958
  1307   1   1016    934
  1308   3    935    959
  1309   3    936    960
  1310   1    970    936
  1311   3    937    957
  1312   3    938    958
  1313   3    939    959
  1314   3    940    960
  1315   5    941    965
  1316   5    942    966
  1317   2    970    942
  1318   5    943    967
  1319   5    944    968
  1320   2   1016    944
  1321   5    945    965
  1322   5    946    966
  1323   5    947    967
  1324   2   1057    947
  1325   5    948    968
  1326   6    949    953
  1327   6    950    954
  1328   6    951    955
  1329   6    952    956
  1330   6    957    961
  1331   6    958    962
  1332   6    959    963
  1333   6    960    964
  1334   7    966   1012
  1335   7    967   1097
  1336   7    968   1054
  1337   1    969    982
  1338   2    969    985
  1339   1    969    979
  1340   1    970    974
  1341   1    970    981
  1342   2    970    992
  1343   1    971   1107
  1344   1    971    984
  1345   2    971    987
  1346   1    971    977
  1347   2    971   1121
  1348   1    972    976
  1349   1    972    983
  1350   2    972   1032
  1351   1    972   1022
  1352   2    972    990
  1353   3    973    993
  1354   1   1101    973
  1355   3    974    994
  1356   3    975    995
  1357   3    976    996
  1358   3    977   1001
  1359   3    978   1002
  1360   3    979   1003
  1361   3    980   1004
  1362   1   1014    980
  1363   3    981   1001
  1364   3    982   1002
  1365   3    983   1003
  1366   3    984   1004
  1367   5    985   1009
  1368   5    986   1010
  1369   2   1014    986
  1370   5    987   1011
  1371   5    988   1012
  1372   5    989   1009
  1373   5    990   1010
  1374   5    991   1011
  1375   2   1101    991
  1376   5    992   1012
  1377   6    993    997
  1378   6    994    998
  1379   6    995    999
  1380   6    996   1000
  1381   6   1001   1005
  1382   6   1002   1006
  1383   6   1003   1007
  1384   6   1004   1008
  1385   7   1010   1056
  1386   7   1011   1141
  1387   1   1013   1026
  1388   2   1013   1029
  1389   1   1013   1023
  1390   1   1014   1018
  1391   1   1014   1025
  1392   2   1014   1036
  1393   1   1015   1151
  1394   1   1015   1028
  1395   2   1015   1031
  1396   1   1015   1021
  1397   2   1015   1165
  1398   1   1016   1020
  1399   1   1016   1027
  1400   2   1016   1034
  1401   3   1017   1037
  1402   1   1145   1017
  1403   3   1018   1038
  1404   3   1019   1039
  1405   3   1020   1040
  1406   3   1021   1045
  1407   3   1022   1046
  1408   3   1023   1047
  1409   3   1024   1048
  1410   3   1025   1045
  1411   3   1026   1046
  1412   3   1027   1047
  1413   3   1028   1048
  1414   5   1029   1053
  1415   5   1030   1054
  1416   5   1031   1055
  1417   5   1032   1056
  1418   5   1033   1053
  1419   5   1034   1054
  1420   5   1035   1055
  1421   2   1145   1035
  1422   5   1036   1056
  1423   6   1037   1041
  1424   6   1038   1042
  1425   6   1039   1043
  1426   6   1040   1044
  1427   6   1045   1049
  1428   6   1046   1050
  1429   6   1047   1051
  1430   6   1048   1052
  1431   7   1055   1185
  1432   1   1057   1070
  1433   2   1057   1073
  1434   1   1057   1067
  1435   1   1058   1062
  1436   1   1058   1069
  1437   2   1058   1162
  1438   1   1058   1156
  1439   2   1058   1080
  1440   1   1059   1072
  1441   2   1059   1075
  1442   1   1059   1065
  1443   1   1060   1064
  1444   1   1060   1071
  1445   2   1060   1120
  1446   1   1060   1110
  1447   2   1060   1078
  1448   3   1061   1081
  1449   3   1062   1082
  1450   3   1063   1083
  1451   3   1064   1084
  1452   3   1065   1089
  1453   3   1066   1090
  1454   1   1148   1066
  1455   3   1067   1091
  1456   3   1068   1092
  1457   1   1102   1068
  1458   3   1069   1089
  1459   3   1070   1090
  1460   3   1071   1091
  1461   3   1072   1092
  1462   5   1073   1097
  1463   5   1074   1098
  1464   2   1102   1074
  1465   5   1075   1099
  1466   5   1076   1100
  1467   2   1148   1076
  1468   5   1077   1097
  1469   5   1078   1098
  1470   5   1079   1099
  1471   5   1080   1100
  1472   6   1081   1085
  1473   6   1082   1086
  1474   6   1083   1087
  1475   6   1084   1088
  1476   6   1089   1093
  1477   6   1090   1094
  1478   6   1091   1095
  1479   6   1092   1096
  1480   7   1098   1144
  1481   7   1100   1186
  1482   1   1101   1114
  1483   2   1101   1117
  1484   1   1101   1111
  1485   1   1102   1106
  1486   1   1102   1113
  1487   2   1102   1124
  1488   1   1103   1116
  1489   2   1103   1119
  1490   1   1103   1109
  1491   1   1104   1108
  1492   1   1104   1115
  1493   2   1104   1164
  1494   1   1104   1154
  1495   2   1104   1122
  1496   3   1105   1125
  1497   3   1106   1126
  1498   3   1107   1127
  1499   3   1108   1128
  1500   3   1109   1133
  1501   3   1110   1134
  1502   3   1111   1135
  1503   3   1112   1136
  1504   1   1146   1112
  1505   3   1113   1133
  1506   3   1114   1134
  1507   3   1115   1135
  1508   3   1116   1136
  1509   5   1117   1141
  1510   5   1118   1142
  1511   2   1146   1118
  1512   5   1119   1143
  1513   5   1120   1144
  1514   5   1121   1141
  1515   5   1122   1142
  1516   5   1123   1143
  1517   5   1124   1144
  1518   6   1125   1129
  1519   6   1126   1130
  1520   6   1127   1131
  1521   6   1128   1132
  1522   6   1133   1137
  1523   6   1134   1138
  1524   6   1135   1139
  1525   6   1136   1140
  1526   7   1142   1188
  1527   1   1145   1158
  1528   2   1145   1161
  1529   1   1145   1155
  1530   1   1146   1150
  1531   1   1146   1157
  1532   2   1146   1168
  1533   1   1147   1160
  1534   2   1147   1163
  1535   1   1147   1153
  1536   1   1148   1152
  1537   1   1148   1159
  1538   2   1148   1166
  1539   3   1149   1169
  1540   3   1150   1170
  1541   3   1151   1171
  1542   3   1152   1172
  1543   3   1153   1177
  1544   3   1154   1178
  1545   3   1155   1179
  1546   3   1156   1180
  1547   3   1157   1177
  1548   3   1158   1178
  1549   3   1159   1179
  1550   3   1160   1180
  1551   5   1161   1185
  1552   5   1162   1186
  1553   5   1163   1187
  1554   5   1164   1188
  1555   5   1165   1185
  1556   5   1166   1186
  1557   5   1167   1187
  1558   5   1168   1188
  1559   6   1169   1173
  1560   6   1170   1174
  1561   6   1171   1175
  1562   6   1172   1176
  1563   6   1177   1181
  1564   6   1178   1182
  1565   6   1179   1183
  1566   6   1180   1184
  1567   8   1189   1190
  1568   8   1189   1191
  1569   8   1192   1193
  1570   8   1192   1194
  1571   8   1195   1196
  1572   8   1195   1197
  1573   8   1198   1199
  1574   8   1198   1200
  1575   8   1201   1202
  1576   8   1201   1203
  1577   8   1204   1205
  1578   8   1204   1206
  1579   8   1207   1208
  1580   8   1207   1209
  1581   8   1210   1211
  1582   8   1210   1212
  1583   8   1213   1214
  1584   8   1213   1215
  1585   8   1216   1217
  1586   8   1216   1218
  1587   8   1219   1220
  1588   8   1219   1221
  1589   8   1222   1223
  1590   8   1222   1224
  1591   8   1225   1226
  1592   8   1225   1227
  1593   8   1228   1229
  1594   8   1228   1230
  1595   8   1231   1232
  1596   8   1231   1233
  1597   8   1234   1235
  1598   8   1234   1236
  1599   8   1237   1238
  1600   8   1237   1239
  1601   8   1240   1241
  1602   8   1240   1242
  1603   8   1243   1244
  1604   8   1243   1245
  1605   8   1246   1247
  1606   8   1246   1248
  1607   8   1249   1250
  1608   8   1249   1251
  1609   8   1252   1253
  1610   8   1252   1254
  1611   8   1255   1256
  1612   8   1255   1257
  1613   8   1258   1259
  1614   8   1258   1260
  1615   8   1261   1262
  1616   8   1261   1263
  1617   8   1264   1265
  1618   8   1264   1266
  1619   8   1267   1268
  1620   8   1267   1269

Angles

     1   1    269      1     14
     2   2    269      1     17
     3   1    269      1     11
     4   2    269      1    287
     5   2     14      1     17
     6   1     14      1     11
     7   2     14      1    287
     8   2     11      1     17
     9   3     17      1    287
    10   2     11      1    287
    11   1      6      2     13
    12   2      6      2    106
    13   1      6      2    100
    14   2      6      2     24
    15   2     13      2    106
    16   1     13      2    100
    17   2     13      2     24
    18   2    100      2    106
    19   3    106      2     24
    20   2    100      2     24
    21   1    139      3     16
    22   2    139      3     19
    23   1    139      3      9
    24   2    139      3    153
    25   2     16      3     19
    26   1     16      3      9
    27   2     16      3    153
    28   2      9      3     19
    29   3     19      3    153
    30   2      9      3    153
    31   1      8      4     15
    32   2      8      4     64
    33   1      8      4     54
    34   2      8      4     22
    35   2     15      4     64
    36   1     15      4     54
    37   2     15      4     22
    38   2     54      4     64
    39   3     64      4     22
    40   2     54      4     22
    41   4    801      5     25
    42   5    133      5     25
    43   6    133      5    801
    44   5      2      6     26
    45   6      2      6    406
    46   4    406      6     26
    47   4    407      7     27
    48   5    267      7     27
    49   6    267      7    407
    50   5      4      8     28
    51   6      4      8    804
    52   4    804      8     28
    53   5      3      9     33
    54   6      3      9    401
    55   4    401      9     33
    56   5     92     10     34
    57   4    798     10     34
    58   6     92     10    798
    59   5      1     11     35
    60   6      1     11    799
    61   4    799     11     35
    62   5     46     12     36
    63   4    404     12     36
    64   6     46     12    404
    65   5      2     13    421
    66   5      2     13     33
    67   7    421     13     33
    68   5      1     14    818
    69   5      1     14     34
    70   7    818     14     34
    71   5      4     15    819
    72   5      4     15     35
    73   7    819     15     35
    74   5      3     16    424
    75   5      3     16     36
    76   7    424     16     36
    77   8      1     17     41
    78   8     46     18     42
    79   8      3     19     43
    80   8     92     20     44
    81   8    267     21     41
    82   8      4     22     42
    83   8    133     23     43
    84   8      2     24     44
    85   9      5     25     29
    86  10      5     25    805
    87   9    805     25     29
    88   9      6     26     30
    89  10      6     26    410
    90   9    410     26     30
    91   9      7     27     31
    92  10      7     27    411
    93   9    411     27     31
    94   9      8     28     32
    95  10      8     28    808
    96   9    808     28     32
    97  10      9     33     13
    98   9      9     33     37
    99   9     13     33     37
   100  10     10     34     14
   101   9     10     34     38
   102   9     14     34     38
   103  10     11     35     15
   104   9     11     35     39
   105   9     15     35     39
   106  10     12     36     16
   107   9     12     36     40
   108   9     16     36     40
   109  11     17     41     21
   110  12     17     41    307
   111  12     21     41    307
   112  11     18     42     22
   113  12     18     42     88
   114  12     22     42     88
   115  11     19     43     23
   116  12     19     43    173
   117  12     23     43    173
   118  11     20     44     24
   119  12     20     44    130
   120  12     24     44    130
   121   1    313     45     58
   122   2    313     45     61
   123   1    313     45     55
   124   2    313     45    331
   125   2     58     45     61
   126   1     58     45     55
   127   2     58     45    331
   128   2     55     45     61
   129   3     61     45    331
   130   2     55     45    331
   131   1     50     46     57
   132   2     50     46     18
   133   1     50     46     12
   134   2     50     46     68
   135   2     57     46     18
   136   1     57     46     12
   137   2     57     46     68
   138   2     12     46     18
   139   3     18     46     68
   140   2     12     46     68
   141   1    183     47     60
   142   2    183     47     63
   143   1    183     47     53
   144   2    183     47    197
   145   2     60     47     63
   146   1     60     47     53
   147   2     60     47    197
   148   2     53     47     63
   149   3     63     47    197
   150   2     53     47    197
   151   1     52     48     59
   152   2     52     48    108
   153   1     52     48     98
   154   2     52     48     66
   155   2     59     48    108
   156   1     59     48     98
   157   2     59     48     66
   158   2     98     48    108
   159   3    108     48     66
   160   2     98     48     66
   161   4    845     49     69
   162   5    177     49     69
   163   6    177     49    845
   164   5     46     50     70
   165   6     46     50    450
   166   4    450     50     70
   167   4    451     51     71
   168   5    311     51     71
   169   6    311     51    451
   170   5     48     52     72
   171   6     48     52    848
   172   4    848     52     72
   173   5     47     53     77
   174   6     47     53    445
   175   4    445     53     77
   176   5      4     54     78
   177   6      4     54    842
   178   4    842     54     78
   179   5     45     55     79
   180   6     45     55    843
   181   4    843     55     79
   182   5     90     56     80
   183   4    448     56     80
   184   6     90     56    448
   185   5     46     57    465
   186   5     46     57     77
   187   7    465     57     77
   188   5     45     58    862
   189   5     45     58     78
   190   7    862     58     78
   191   5     48     59    863
   192   5     48     59     79
   193   7    863     59     79
   194   5     47     60    468
   195   5     47     60     80
   196   7    468     60     80
   197   8     45     61     85
   198   8     90     62     86
   199   8     47     63     87
   200   8      4     64     88
   201   8    311     65     85
   202   8     48     66     86
   203   8    177     67     87
   204   8     46     68     88
   205   9     49     69     73
   206  10     49     69    849
   207   9    849     69     73
   208   9     50     70     74
   209  10     50     70    454
   210   9    454     70     74
   211   9     51     71     75
   212  10     51     71    455
   213   9    455     71     75
   214   9     52     72     76
   215  10     52     72    852
   216   9    852     72     76
   217  10     53     77     57
   218   9     53     77     81
   219   9     57     77     81
   220  10     54     78     58
   221   9     54     78     82
   222   9     58     78     82
   223  10     55     79     59
   224   9     55     79     83
   225   9     59     79     83
   226  10     56     80     60
   227   9     56     80     84
   228   9     60     80     84
   229  11     61     85     65
   230  12     61     85    351
   231  12     65     85    351
   232  11     62     86     66
   233  12     62     86    132
   234  12     66     86    132
   235  11     63     87     67
   236  12     63     87    217
   237  12     67     87    217
   238  12     64     88     42
   239  12     68     88     42
   240  11     64     88     68
   241   1    357     89    102
   242   2    357     89    105
   243   1    357     89     99
   244   2    357     89    375
   245   2    102     89    105
   246   1    102     89     99
   247   2    102     89    375
   248   2     99     89    105
   249   3    105     89    375
   250   2     99     89    375
   251   1     94     90    101
   252   2     94     90     62
   253   1     94     90     56
   254   2     94     90    112
   255   2    101     90     62
   256   1    101     90     56
   257   2    101     90    112
   258   2     56     90     62
   259   3     62     90    112
   260   2     56     90    112
   261   1    227     91    104
   262   2    227     91    107
   263   1    227     91     97
   264   2    227     91    241
   265   2    104     91    107
   266   1    104     91     97
   267   2    104     91    241
   268   2     97     91    107
   269   3    107     91    241
   270   2     97     91    241
   271   1     96     92    103
   272   2     96     92     20
   273   1     96     92     10
   274   2     96     92    110
   275   2    103     92     20
   276   1    103     92     10
   277   2    103     92    110
   278   2     10     92     20
   279   3     20     92    110
   280   2     10     92    110
   281   4    889     93    113
   282   5    221     93    113
   283   6    221     93    889
   284   5     90     94    114
   285   6     90     94    494
   286   4    494     94    114
   287   4    495     95    115
   288   5    355     95    115
   289   6    355     95    495
   290   5     92     96    116
   291   6     92     96    892
   292   4    892     96    116
   293   5     91     97    121
   294   6     91     97    489
   295   4    489     97    121
   296   5     48     98    122
   297   6     48     98    886
   298   4    886     98    122
   299   5     89     99    123
   300   6     89     99    887
   301   4    887     99    123
   302   5      2    100    124
   303   6      2    100    492
   304   4    492    100    124
   305   5     90    101    509
   306   5     90    101    121
   307   7    509    101    121
   308   5     89    102    906
   309   5     89    102    122
   310   7    906    102    122
   311   5     92    103    907
   312   5     92    103    123
   313   7    907    103    123
   314   5     91    104    512
   315   5     91    104    124
   316   7    512    104    124
   317   8     89    105    129
   318   8      2    106    130
   319   8     91    107    131
   320   8     48    108    132
   321   8    355    109    129
   322   8     92    110    130
   323   8    221    111    131
   324   8     90    112    132
   325   9     93    113    117
   326  10     93    113    893
   327   9    893    113    117
   328   9     94    114    118
   329  10     94    114    498
   330   9    498    114    118
   331   9     95    115    119
   332  10     95    115    499
   333   9    499    115    119
   334   9     96    116    120
   335  10     96    116    896
   336   9    896    116    120
   337  10     97    121    101
   338   9     97    121    125
   339   9    101    121    125
   340  10     98    122    102
   341   9     98    122    126
   342   9    102    122    126
   343  10     99    123    103
   344   9     99    123    127
   345   9    103    123    127
   346  10    100    124    104
   347   9    100    124    128
   348   9    104    124    128
   349  11    105    129    109
   350  12    105    129    395
   351  12    109    129    395
   352  11    106    130    110
   353  12    106    130     44
   354  12    110    130     44
   355  11    107    131    111
   356  12    107    131    261
   357  12    111    131    261
   358  12    108    132     86
   359  12    112    132     86
   360  11    108    132    112
   361   1      5    133    146
   362   2      5    133    149
   363   1      5    133    143
   364   2      5    133     23
   365   2    146    133    149
   366   1    146    133    143
   367   2    146    133     23
   368   2    143    133    149
   369   3    149    133     23
   370   2    143    133     23
   371   1    138    134    145
   372   2    138    134    238
   373   1    138    134    232
   374   2    138    134    156
   375   2    145    134    238
   376   1    145    134    232
   377   2    145    134    156
   378   2    232    134    238
   379   3    238    134    156
   380   2    232    134    156
   381   1    271    135    148
   382   2    271    135    151
   383   1    271    135    141
   384   2    271    135    285
   385   2    148    135    151
   386   1    148    135    141
   387   2    148    135    285
   388   2    141    135    151
   389   3    151    135    285
   390   2    141    135    285
   391   1    140    136    147
   392   2    140    136    196
   393   1    140    136    186
   394   2    140    136    154
   395   2    147    136    196
   396   1    147    136    186
   397   2    147    136    154
   398   2    186    136    196
   399   3    196    136    154
   400   2    186    136    154
   401   4    933    137    157
   402   5    265    137    157
   403   6    265    137    933
   404   5    134    138    158
   405   6    134    138    538
   406   4    538    138    158
   407   5      3    139    159
   408   6      3    139    539
   409   4    539    139    159
   410   5    136    140    160
   411   6    136    140    936
   412   4    936    140    160
   413   5    135    141    165
   414   6    135    141    533
   415   4    533    141    165
   416   5    224    142    166
   417   4    930    142    166
   418   6    224    142    930
   419   5    133    143    167
   420   6    133    143    931
   421   4    931    143    167
   422   5    178    144    168
   423   4    536    144    168
   424   6    178    144    536
   425   5    134    145    553
   426   5    134    145    165
   427   7    553    145    165
   428   5    133    146    950
   429   5    133    146    166
   430   7    950    146    166
   431   5    136    147    951
   432   5    136    147    167
   433   7    951    147    167
   434   5    135    148    556
   435   5    135    148    168
   436   7    556    148    168
   437   8    133    149    173
   438   8    178    150    174
   439   8    135    151    175
   440   8    224    152    176
   441   8      3    153    173
   442   8    136    154    174
   443   8    265    155    175
   444   8    134    156    176
   445   9    137    157    161
   446  10    137    157    937
   447   9    937    157    161
   448   9    138    158    162
   449  10    138    158    542
   450   9    542    158    162
   451   9    139    159    163
   452  10    139    159    543
   453   9    543    159    163
   454   9    140    160    164
   455  10    140    160    940
   456   9    940    160    164
   457  10    141    165    145
   458   9    141    165    169
   459   9    145    165    169
   460  10    142    166    146
   461   9    142    166    170
   462   9    146    166    170
   463  10    143    167    147
   464   9    143    167    171
   465   9    147    167    171
   466  10    144    168    148
   467   9    144    168    172
   468   9    148    168    172
   469  11    149    173    153
   470  12    149    173     43
   471  12    153    173     43
   472  11    150    174    154
   473  12    150    174    220
   474  12    154    174    220
   475  11    151    175    155
   476  12    151    175    305
   477  12    155    175    305
   478  11    152    176    156
   479  12    152    176    262
   480  12    156    176    262
   481   1     49    177    190
   482   2     49    177    193
   483   1     49    177    187
   484   2     49    177     67
   485   2    190    177    193
   486   1    190    177    187
   487   2    190    177     67
   488   2    187    177    193
   489   3    193    177     67
   490   2    187    177     67
   491   1    182    178    189
   492   2    182    178    150
   493   1    182    178    144
   494   2    182    178    200
   495   2    189    178    150
   496   1    189    178    144
   497   2    189    178    200
   498   2    144    178    150
   499   3    150    178    200
   500   2    144    178    200
   501   1    315    179    192
   502   2    315    179    195
   503   1    315    179    185
   504   2    315    179    329
   505   2    192    179    195
   506   1    192    179    185
   507   2    192    179    329
   508   2    185    179    195
   509   3    195    179    329
   510   2    185    179    329
   511   1    184    180    191
   512   2    184    180    240
   513   1    184    180    230
   514   2    184    180    198
   515   2    191    180    240
   516   1    191    180    230
   517   2    191    180    198
   518   2    230    180    240
   519   3    240    180    198
   520   2    230    180    198
   521   4    977    181    201
   522   5    309    181    201
   523   6    309    181    977
   524   5    178    182    202
   525   6    178    182    582
   526   4    582    182    202
   527   5     47    183    203
   528   6     47    183    583
   529   4    583    183    203
   530   5    180    184    204
   531   6    180    184    980
   532   4    980    184    204
   533   5    179    185    209
   534   6    179    185    577
   535   4    577    185    209
   536   5    136    186    210
   537   6    136    186    974
   538   4    974    186    210
   539   5    177    187    211
   540   6    177    187    975
   541   4    975    187    211
   542   5    222    188    212
   543   4    580    188    212
   544   6    222    188    580
   545   5    178    189    597
   546   5    178    189    209
   547   7    597    189    209
   548   5    177    190    994
   549   5    177    190    210
   550   7    994    190    210
   551   5    180    191    995
   552   5    180    191    211
   553   7    995    191    211
   554   5    179    192    600
   555   5    179    192    212
   556   7    600    192    212
   557   8    177    193    217
   558   8    222    194    218
   559   8    179    195    219
   560   8    136    196    220
   561   8     47    197    217
   562   8    180    198    218
   563   8    309    199    219
   564   8    178    200    220
   565   9    181    201    205
   566  10    181    201    981
   567   9    981    201    205
   568   9    182    202    206
   569  10    182    202    586
   570   9    586    202    206
   571   9    183    203    207
   572  10    183    203    587
   573   9    587    203    207
   574   9    184    204    208
   575  10    184    204    984
   576   9    984    204    208
   577  10    185    209    189
   578   9    185    209    213
   579   9    189    209    213
   580  10    186    210    190
   581   9    186    210    214
   582   9    190    210    214
   583  10    187    211    191
   584   9    187    211    215
   585   9    191    211    215
   586  10    188    212    192
   587   9    188    212    216
   588   9    192    212    216
   589  11    193    217    197
   590  12    193    217     87
   591  12    197    217     87
   592  11    194    218    198
   593  12    194    218    264
   594  12    198    218    264
   595  11    195    219    199
   596  12    195    219    349
   597  12    199    219    349
   598  12    196    220    174
   599  12    200    220    174
   600  11    196    220    200
   601   1     93    221    234
   602   2     93    221    237
   603   1     93    221    231
   604   2     93    221    111
   605   2    234    221    237
   606   1    234    221    231
   607   2    234    221    111
   608   2    231    221    237
   609   3    237    221    111
   610   2    231    221    111
   611   1    226    222    233
   612   2    226    222    194
   613   1    226    222    188
   614   2    226    222    244
   615   2    233    222    194
   616   1    233    222    188
   617   2    233    222    244
   618   2    188    222    194
   619   3    194    222    244
   620   2    188    222    244
   621   1    359    223    236
   622   2    359    223    239
   623   1    359    223    229
   624   2    359    223    373
   625   2    236    223    239
   626   1    236    223    229
   627   2    236    223    373
   628   2    229    223    239
   629   3    239    223    373
   630   2    229    223    373
   631   1    228    224    235
   632   2    228    224    152
   633   1    228    224    142
   634   2    228    224    242
   635   2    235    224    152
   636   1    235    224    142
   637   2    235    224    242
   638   2    142    224    152
   639   3    152    224    242
   640   2    142    224    242
   641   4   1021    225    245
   642   5    353    225    245
   643   6    353    225   1021
   644   5    222    226    246
   645   6    222    226    626
   646   4    626    226    246
   647   5     91    227    247
   648   6     91    227    627
   649   4    627    227    247
   650   5    224    228    248
   651   6    224    228   1024
   652   4   1024    228    248
   653   5    223    229    253
   654   6    223    229    621
   655   4    621    229    253
   656   5    180    230    254
   657   6    180    230   1018
   658   4   1018    230    254
   659   5    221    231    255
   660   6    221    231   1019
   661   4   1019    231    255
   662   5    134    232    256
   663   6    134    232    624
   664   4    624    232    256
   665   5    222    233    641
   666   5    222    233    253
   667   7    641    233    253
   668   5    221    234   1038
   669   5    221    234    254
   670   7   1038    234    254
   671   5    224    235   1039
   672   5    224    235    255
   673   7   1039    235    255
   674   5    223    236    644
   675   5    223    236    256
   676   7    644    236    256
   677   8    221    237    261
   678   8    134    238    262
   679   8    223    239    263
   680   8    180    240    264
   681   8     91    241    261
   682   8    224    242    262
   683   8    353    243    263
   684   8    222    244    264
   685   9    225    245    249
   686  10    225    245   1025
   687   9   1025    245    249
   688   9    226    246    250
   689  10    226    246    630
   690   9    630    246    250
   691   9    227    247    251
   692  10    227    247    631
   693   9    631    247    251
   694   9    228    248    252
   695  10    228    248   1028
   696   9   1028    248    252
   697  10    229    253    233
   698   9    229    253    257
   699   9    233    253    257
   700  10    230    254    234
   701   9    230    254    258
   702   9    234    254    258
   703  10    231    255    235
   704   9    231    255    259
   705   9    235    255    259
   706  10    232    256    236
   707   9    232    256    260
   708   9    236    256    260
   709  11    237    261    241
   710  12    237    261    131
   711  12    241    261    131
   712  11    238    262    242
   713  12    238    262    176
   714  12    242    262    176
   715  11    239    263    243
   716  12    239    263    393
   717  12    243    263    393
   718  12    240    264    218
   719  12    244    264    218
   720  11    240    264    244
   721   1    137    265    278
   722   2    137    265    281
   723   1    137    265    275
   724   2    137    265    155
   725   2    278    265    281
   726   1    278    265    275
   727   2    278    265    155
   728   2    275    265    281
   729   3    281    265    155
   730   2    275    265    155
   731   1    270    266    277
   732   2    270    266    370
   733   1    270    266    364
   734   2    270    266    288
   735   2    277    266    370
   736   1    277    266    364
   737   2    277    266    288
   738   2    364    266    370
   739   3    370    266    288
   740   2    364    266    288
   741   1      7    267    280
   742   2      7    267    283
   743   1      7    267    273
   744   2      7    267     21
   745   2    280    267    283
   746   1    280    267    273
   747   2    280    267     21
   748   2    273    267    283
   749   3    283    267     21
   750   2    273    267     21
   751   1    272    268    279
   752   2    272    268    328
   753   1    272    268    318
   754   2    272    268    286
   755   2    279    268    328
   756   1    279    268    318
   757   2    279    268    286
   758   2    318    268    328
   759   3    328    268    286
   760   2    318    268    286
   761   5      1    269    289
   762   6      1    269   1065
   763   4   1065    269    289
   764   5    266    270    290
   765   6    266    270    670
   766   4    670    270    290
   767   5    135    271    291
   768   6    135    271    671
   769   4    671    271    291
   770   5    268    272    292
   771   6    268    272   1068
   772   4   1068    272    292
   773   5    267    273    297
   774   6    267    273    665
   775   4    665    273    297
   776   5    356    274    298
   777   4   1062    274    298
   778   6    356    274   1062
   779   5    265    275    299
   780   6    265    275   1063
   781   4   1063    275    299
   782   5    310    276    300
   783   4    668    276    300
   784   6    310    276    668
   785   5    266    277    685
   786   5    266    277    297
   787   7    685    277    297
   788   5    265    278   1082
   789   5    265    278    298
   790   7   1082    278    298
   791   5    268    279   1083
   792   5    268    279    299
   793   7   1083    279    299
   794   5    267    280    688
   795   5    267    280    300
   796   7    688    280    300
   797   8    265    281    305
   798   8    310    282    306
   799   8    267    283    307
   800   8    356    284    308
   801   8    135    285    305
   802   8    268    286    306
   803   8      1    287    307
   804   8    266    288    308
   805   9    269    289    293
   806  10    269    289   1069
   807   9   1069    289    293
   808   9    270    290    294
   809  10    270    290    674
   810   9    674    290    294
   811   9    271    291    295
   812  10    271    291    675
   813   9    675    291    295
   814   9    272    292    296
   815  10    272    292   1072
   816   9   1072    292    296
   817  10    273    297    277
   818   9    273    297    301
   819   9    277    297    301
   820  10    274    298    278
   821   9    274    298    302
   822   9    278    298    302
   823  10    275    299    279
   824   9    275    299    303
   825   9    279    299    303
   826  10    276    300    280
   827   9    276    300    304
   828   9    280    300    304
   829  11    281    305    285
   830  12    281    305    175
   831  12    285    305    175
   832  11    282    306    286
   833  12    282    306    352
   834  12    286    306    352
   835  12    283    307     41
   836  12    287    307     41
   837  11    283    307    287
   838  11    284    308    288
   839  12    284    308    394
   840  12    288    308    394
   841   1    181    309    322
   842   2    181    309    325
   843   1    181    309    319
   844   2    181    309    199
   845   2    322    309    325
   846   1    322    309    319
   847   2    322    309    199
   848   2    319    309    325
   849   3    325    309    199
   850   2    319    309    199
   851   1    314    310    321
   852   2    314    310    282
   853   1    314    310    276
   854   2    314    310    332
   855   2    321    310    282
   856   1    321    310    276
   857   2    321    310    332
   858   2    276    310    282
   859   3    282    310    332
   860   2    276    310    332
   861   1     51    311    324
   862   2     51    311    327
   863   1     51    311    317
   864   2     51    311     65
   865   2    324    311    327
   866   1    324    311    317
   867   2    324    311     65
   868   2    317    311    327
   869   3    327    311     65
   870   2    317    311     65
   871   1    316    312    323
   872   2    316    312    372
   873   1    316    312    362
   874   2    316    312    330
   875   2    323    312    372
   876   1    323    312    362
   877   2    323    312    330
   878   2    362    312    372
   879   3    372    312    330
   880   2    362    312    330
   881   5     45    313    333
   882   6     45    313   1109
   883   4   1109    313    333
   884   5    310    314    334
   885   6    310    314    714
   886   4    714    314    334
   887   5    179    315    335
   888   6    179    315    715
   889   4    715    315    335
   890   5    312    316    336
   891   6    312    316   1112
   892   4   1112    316    336
   893   5    311    317    341
   894   6    311    317    709
   895   4    709    317    341
   896   5    268    318    342
   897   6    268    318   1106
   898   4   1106    318    342
   899   5    309    319    343
   900   6    309    319   1107
   901   4   1107    319    343
   902   5    354    320    344
   903   4    712    320    344
   904   6    354    320    712
   905   5    310    321    729
   906   5    310    321    341
   907   7    729    321    341
   908   5    309    322   1126
   909   5    309    322    342
   910   7   1126    322    342
   911   5    312    323   1127
   912   5    312    323    343
   913   7   1127    323    343
   914   5    311    324    732
   915   5    311    324    344
   916   7    732    324    344
   917   8    309    325    349
   918   8    354    326    350
   919   8    311    327    351
   920   8    268    328    352
   921   8    179    329    349
   922   8    312    330    350
   923   8     45    331    351
   924   8    310    332    352
   925   9    313    333    337
   926  10    313    333   1113
   927   9   1113    333    337
   928   9    314    334    338
   929  10    314    334    718
   930   9    718    334    338
   931   9    315    335    339
   932  10    315    335    719
   933   9    719    335    339
   934   9    316    336    340
   935  10    316    336   1116
   936   9   1116    336    340
   937  10    317    341    321
   938   9    317    341    345
   939   9    321    341    345
   940  10    318    342    322
   941   9    318    342    346
   942   9    322    342    346
   943  10    319    343    323
   944   9    319    343    347
   945   9    323    343    347
   946  10    320    344    324
   947   9    320    344    348
   948   9    324    344    348
   949  11    325    349    329
   950  12    325    349    219
   951  12    329    349    219
   952  11    326    350    330
   953  12    326    350    396
   954  12    330    350    396
   955  12    327    351     85
   956  12    331    351     85
   957  11    327    351    331
   958  12    328    352    306
   959  12    332    352    306
   960  11    328    352    332
   961   1    225    353    366
   962   2    225    353    369
   963   1    225    353    363
   964   2    225    353    243
   965   2    366    353    369
   966   1    366    353    363
   967   2    366    353    243
   968   2    363    353    369
   969   3    369    353    243
   970   2    363    353    243
   971   1    358    354    365
   972   2    358    354    326
   973   1    358    354    320
   974   2    358    354    376
   975   2    365    354    326
   976   1    365    354    320
   977   2    365    354    376
   978   2    320    354    326
   979   3    326    354    376
   980   2    320    354    376
   981   1     95    355    368
   982   2     95    355    371
   983   1     95    355    361
   984   2     95    355    109
   985   2    368    355    371
   986   1    368    355    361
   987   2    368    355    109
   988   2    361    355    371
   989   3    371    355    109
   990   2    361    355    109
   991   1    360    356    367
   992   2    360    356    284
   993   1    360    356    274
   994   2    360    356    374
   995   2    367    356    284
   996   1    367    356    274
   997   2    367    356    374
   998   2    274    356    284
   999   3    284    356    374
  1000   2    274    356    374
  1001   5     89    357    377
  1002   6     89    357   1153
  1003   4   1153    357    377
  1004   5    354    358    378
  1005   6    354    358    758
  1006   4    758    358    378
  1007   5    223    359    379
  1008   6    223    359    759
  1009   4    759    359    379
  1010   5    356    360    380
  1011   6    356    360   1156
  1012   4   1156    360    380
  1013   5    355    361    385
  1014   6    355    361    753
  1015   4    753    361    385
  1016   5    312    362    386
  1017   6    312    362   1150
  1018   4   1150    362    386
  1019   5    353    363    387
  1020   6    353    363   1151
  1021   4   1151    363    387
  1022   5    266    364    388
  1023   6    266    364    756
  1024   4    756    364    388
  1025   5    354    365    773
  1026   5    354    365    385
  1027   7    773    365    385
  1028   5    353    366   1170
  1029   5    353    366    386
  1030   7   1170    366    386
  1031   5    356    367   1171
  1032   5    356    367    387
  1033   7   1171    367    387
  1034   5    355    368    776
  1035   5    355    368    388
  1036   7    776    368    388
  1037   8    353    369    393
  1038   8    266    370    394
  1039   8    355    371    395
  1040   8    312    372    396
  1041   8    223    373    393
  1042   8    356    374    394
  1043   8     89    375    395
  1044   8    354    376    396
  1045   9    357    377    381
  1046  10    357    377   1157
  1047   9   1157    377    381
  1048   9    358    378    382
  1049  10    358    378    762
  1050   9    762    378    382
  1051   9    359    379    383
  1052  10    359    379    763
  1053   9    763    379    383
  1054   9    360    380    384
  1055  10    360    380   1160
  1056   9   1160    380    384
  1057  10    361    385    365
  1058   9    361    385    389
  1059   9    365    385    389
  1060  10    362    386    366
  1061   9    362    386    390
  1062   9    366    386    390
  1063  10    363    387    367
  1064   9    363    387    391
  1065   9    367    387    391
  1066  10    364    388    368
  1067   9    364    388    392
  1068   9    368    388    392
  1069  11    369    393    373
  1070  12    369    393    263
  1071  12    373    393    263
  1072  11    370    394    374
  1073  12    370    394    308
  1074  12    374    394    308
  1075  12    371    395    129
  1076  12    375    395    129
  1077  11    371    395    375
  1078  12    372    396    350
  1079  12    376    396    350
  1080  11    372    396    376
  1081   1    665    397    410
  1082   2    665    397    413
  1083   1    665    397    407
  1084   2    665    397    683
  1085   2    410    397    413
  1086   1    410    397    407
  1087   2    410    397    683
  1088   2    407    397    413
  1089   3    413    397    683
  1090   2    407    397    683
  1091   1    402    398    409
  1092   2    402    398    502
  1093   1    402    398    496
  1094   2    402    398    420
  1095   2    409    398    502
  1096   1    409    398    496
  1097   2    409    398    420
  1098   2    496    398    502
  1099   3    502    398    420
  1100   2    496    398    420
  1101   1    535    399    412
  1102   2    535    399    415
  1103   1    535    399    405
  1104   2    535    399    549
  1105   2    412    399    415
  1106   1    412    399    405
  1107   2    412    399    549
  1108   2    405    399    415
  1109   3    415    399    549
  1110   2    405    399    549
  1111   1    404    400    411
  1112   2    404    400    460
  1113   1    404    400    450
  1114   2    404    400    418
  1115   2    411    400    460
  1116   1    411    400    450
  1117   2    411    400    418
  1118   2    450    400    460
  1119   3    460    400    418
  1120   2    450    400    418
  1121   4      9    401    421
  1122   5    529    401    421
  1123   6    529    401      9
  1124   5    398    402    422
  1125   6    398    402    802
  1126   4    802    402    422
  1127   4    803    403    423
  1128   5    663    403    423
  1129   6    663    403    803
  1130   5    400    404    424
  1131   6    400    404     12
  1132   4     12    404    424
  1133   5    399    405    429
  1134   6    399    405    797
  1135   4    797    405    429
  1136   4      6    406    430
  1137   6    488    406      6
  1138   5    488    406    430
  1139   6    397    407      7
  1140   4      7    407    431
  1141   5    397    407    431
  1142   5    442    408    432
  1143   4    800    408    432
  1144   6    442    408    800
  1145   5    398    409    817
  1146   5    398    409    429
  1147   7    817    409    429
  1148   5    397    410     26
  1149   5    397    410    430
  1150   7     26    410    430
  1151   5    400    411     27
  1152   5    400    411    431
  1153   7     27    411    431
  1154   5    399    412    820
  1155   5    399    412    432
  1156   7    820    412    432
  1157   8    397    413    437
  1158   8    442    414    438
  1159   8    399    415    439
  1160   8    488    416    440
  1161   8    663    417    437
  1162   8    400    418    438
  1163   8    529    419    439
  1164   8    398    420    440
  1165  10     13    421    401
  1166   9     13    421    425
  1167   9    401    421    425
  1168   9    402    422    426
  1169  10    402    422    806
  1170   9    806    422    426
  1171   9    403    423    427
  1172  10    403    423    807
  1173   9    807    423    427
  1174  10     16    424    404
  1175   9     16    424    428
  1176   9    404    424    428
  1177  10    405    429    409
  1178   9    405    429    433
  1179   9    409    429    433
  1180  10    406    430    410
  1181   9    406    430    434
  1182   9    410    430    434
  1183  10    407    431    411
  1184   9    407    431    435
  1185   9    411    431    435
  1186  10    408    432    412
  1187   9    408    432    436
  1188   9    412    432    436
  1189  11    413    437    417
  1190  12    413    437    703
  1191  12    417    437    703
  1192  11    414    438    418
  1193  12    414    438    484
  1194  12    418    438    484
  1195  11    415    439    419
  1196  12    415    439    569
  1197  12    419    439    569
  1198  11    416    440    420
  1199  12    416    440    526
  1200  12    420    440    526
  1201   1    709    441    454
  1202   2    709    441    457
  1203   1    709    441    451
  1204   2    709    441    727
  1205   2    454    441    457
  1206   1    454    441    451
  1207   2    454    441    727
  1208   2    451    441    457
  1209   3    457    441    727
  1210   2    451    441    727
  1211   1    446    442    453
  1212   2    446    442    414
  1213   1    446    442    408
  1214   2    446    442    464
  1215   2    453    442    414
  1216   1    453    442    408
  1217   2    453    442    464
  1218   2    408    442    414
  1219   3    414    442    464
  1220   2    408    442    464
  1221   1    579    443    456
  1222   2    579    443    459
  1223   1    579    443    449
  1224   2    579    443    593
  1225   2    456    443    459
  1226   1    456    443    449
  1227   2    456    443    593
  1228   2    449    443    459
  1229   3    459    443    593
  1230   2    449    443    593
  1231   1    448    444    455
  1232   2    448    444    504
  1233   1    448    444    494
  1234   2    448    444    462
  1235   2    455    444    504
  1236   1    455    444    494
  1237   2    455    444    462
  1238   2    494    444    504
  1239   3    504    444    462
  1240   2    494    444    462
  1241   4     53    445    465
  1242   5    573    445    465
  1243   6    573    445     53
  1244   5    442    446    466
  1245   6    442    446    846
  1246   4    846    446    466
  1247   4    847    447    467
  1248   5    707    447    467
  1249   6    707    447    847
  1250   5    444    448    468
  1251   6    444    448     56
  1252   4     56    448    468
  1253   5    443    449    473
  1254   6    443    449    841
  1255   4    841    449    473
  1256   6    400    450     50
  1257   4     50    450    474
  1258   5    400    450    474
  1259   6    441    451     51
  1260   4     51    451    475
  1261   5    441    451    475
  1262   5    486    452    476
  1263   4    844    452    476
  1264   6    486    452    844
  1265   5    442    453    861
  1266   5    442    453    473
  1267   7    861    453    473
  1268   5    441    454     70
  1269   5    441    454    474
  1270   7     70    454    474
  1271   5    444    455     71
  1272   5    444    455    475
  1273   7     71    455    475
  1274   5    443    456    864
  1275   5    443    456    476
  1276   7    864    456    476
  1277   8    441    457    481
  1278   8    486    458    482
  1279   8    443    459    483
  1280   8    400    460    484
  1281   8    707    461    481
  1282   8    444    462    482
  1283   8    573    463    483
  1284   8    442    464    484
  1285  10     57    465    445
  1286   9     57    465    469
  1287   9    445    465    469
  1288   9    446    466    470
  1289  10    446    466    850
  1290   9    850    466    470
  1291   9    447    467    471
  1292  10    447    467    851
  1293   9    851    467    471
  1294  10     60    468    448
  1295   9     60    468    472
  1296   9    448    468    472
  1297  10    449    473    453
  1298   9    449    473    477
  1299   9    453    473    477
  1300  10    450    474    454
  1301   9    450    474    478
  1302   9    454    474    478
  1303  10    451    475    455
  1304   9    451    475    479
  1305   9    455    475    479
  1306  10    452    476    456
  1307   9    452    476    480
  1308   9    456    476    480
  1309  11    457    481    461
  1310  12    457    481    747
  1311  12    461    481    747
  1312  11    458    482    462
  1313  12    458    482    528
  1314  12    462    482    528
  1315  11    459    483    463
  1316  12    459    483    613
  1317  12    463    483    613
  1318  12    460    484    438
  1319  12    464    484    438
  1320  11    460    484    464
  1321   1    753    485    498
  1322   2    753    485    501
  1323   1    753    485    495
  1324   2    753    485    771
  1325   2    498    485    501
  1326   1    498    485    495
  1327   2    498    485    771
  1328   2    495    485    501
  1329   3    501    485    771
  1330   2    495    485    771
  1331   1    490    486    497
  1332   2    490    486    458
  1333   1    490    486    452
  1334   2    490    486    508
  1335   2    497    486    458
  1336   1    497    486    452
  1337   2    497    486    508
  1338   2    452    486    458
  1339   3    458    486    508
  1340   2    452    486    508
  1341   1    623    487    500
  1342   2    623    487    503
  1343   1    623    487    493
  1344   2    623    487    637
  1345   2    500    487    503
  1346   1    500    487    493
  1347   2    500    487    637
  1348   2    493    487    503
  1349   3    503    487    637
  1350   2    493    487    637
  1351   1    492    488    499
  1352   2    492    488    416
  1353   1    492    488    406
  1354   2    492    488    506
  1355   2    499    488    416
  1356   1    499    488    406
  1357   2    499    488    506
  1358   2    406    488    416
  1359   3    416    488    506
  1360   2    406    488    506
  1361   4     97    489    509
  1362   5    617    489    509
  1363   6    617    489     97
  1364   5    486    490    510
  1365   6    486    490    890
  1366   4    890    490    510
  1367   4    891    491    511
  1368   5    751    491    511
  1369   6    751    491    891
  1370   5    488    492    512
  1371   6    488    492    100
  1372   4    100    492    512
  1373   5    487    493    517
  1374   6    487    493    885
  1375   4    885    493    517
  1376   6    444    494     94
  1377   4     94    494    518
  1378   5    444    494    518
  1379   6    485    495     95
  1380   4     95    495    519
  1381   5    485    495    519
  1382   5    398    496    520
  1383   6    398    496    888
  1384   4    888    496    520
  1385   5    486    497    905
  1386   5    486    497    517
  1387   7    905    497    517
  1388   5    485    498    114
  1389   5    485    498    518
  1390   7    114    498    518
  1391   5    488    499    115
  1392   5    488    499    519
  1393   7    115    499    519
  1394   5    487    500    908
  1395   5    487    500    520
  1396   7    908    500    520
  1397   8    485    501    525
  1398   8    398    502    526
  1399   8    487    503    527
  1400   8    444    504    528
  1401   8    751    505    525
  1402   8    488    506    526
  1403   8    617    507    527
  1404   8    486    508    528
  1405  10    101    509    489
  1406   9    101    509    513
  1407   9    489    509    513
  1408   9    490    510    514
  1409  10    490    510    894
  1410   9    894    510    514
  1411   9    491    511    515
  1412  10    491    511    895
  1413   9    895    511    515
  1414  10    104    512    492
  1415   9    104    512    516
  1416   9    492    512    516
  1417  10    493    517    497
  1418   9    493    517    521
  1419   9    497    517    521
  1420  10    494    518    498
  1421   9    494    518    522
  1422   9    498    518    522
  1423  10    495    519    499
  1424   9    495    519    523
  1425   9    499    519    523
  1426  10    496    520    500
  1427   9    496    520    524
  1428   9    500    520    524
  1429  11    501    525    505
  1430  12    501    525    791
  1431  12    505    525    791
  1432  11    502    526    506
  1433  12    502    526    440
  1434  12    506    526    440
  1435  11    503    527    507
  1436  12    503    527    657
  1437  12    507    527    657
  1438  12    504    528    482
  1439  12    508    528    482
  1440  11    504    528    508
  1441   1    401    529    542
  1442   2    401    529    545
  1443   1    401    529    539
  1444   2    401    529    419
  1445   2    542    529    545
  1446   1    542    529    539
  1447   2    542    529    419
  1448   2    539    529    545
  1449   3    545    529    419
  1450   2    539    529    419
  1451   1    534    530    541
  1452   2    534    530    634
  1453   1    534    530    628
  1454   2    534    530    552
  1455   2    541    530    634
  1456   1    541    530    628
  1457   2    541    530    552
  1458   2    628    530    634
  1459   3    634    530    552
  1460   2    628    530    552
  1461   1    667    531    544
  1462   2    667    531    547
  1463   1    667    531    537
  1464   2    667    531    681
  1465   2    544    531    547
  1466   1    544    531    537
  1467   2    544    531    681
  1468   2    537    531    547
  1469   3    547    531    681
  1470   2    537    531    681
  1471   1    536    532    543
  1472   2    536    532    592
  1473   1    536    532    582
  1474   2    536    532    550
  1475   2    543    532    592
  1476   1    543    532    582
  1477   2    543    532    550
  1478   2    582    532    592
  1479   3    592    532    550
  1480   2    582    532    550
  1481   4    141    533    553
  1482   5    661    533    553
  1483   6    661    533    141
  1484   5    530    534    554
  1485   6    530    534    934
  1486   4    934    534    554
  1487   5    399    535    555
  1488   6    399    535    935
  1489   4    935    535    555
  1490   5    532    536    556
  1491   6    532    536    144
  1492   4    144    536    556
  1493   5    531    537    561
  1494   6    531    537    929
  1495   4    929    537    561
  1496   4    138    538    562
  1497   6    620    538    138
  1498   5    620    538    562
  1499   6    529    539    139
  1500   4    139    539    563
  1501   5    529    539    563
  1502   5    574    540    564
  1503   4    932    540    564
  1504   6    574    540    932
  1505   5    530    541    949
  1506   5    530    541    561
  1507   7    949    541    561
  1508   5    529    542    158
  1509   5    529    542    562
  1510   7    158    542    562
  1511   5    532    543    159
  1512   5    532    543    563
  1513   7    159    543    563
  1514   5    531    544    952
  1515   5    531    544    564
  1516   7    952    544    564
  1517   8    529    545    569
  1518   8    574    546    570
  1519   8    531    547    571
  1520   8    620    548    572
  1521   8    399    549    569
  1522   8    532    550    570
  1523   8    661    551    571
  1524   8    530    552    572
  1525  10    145    553    533
  1526   9    145    553    557
  1527   9    533    553    557
  1528   9    534    554    558
  1529  10    534    554    938
  1530   9    938    554    558
  1531   9    535    555    559
  1532  10    535    555    939
  1533   9    939    555    559
  1534  10    148    556    536
  1535   9    148    556    560
  1536   9    536    556    560
  1537  10    537    561    541
  1538   9    537    561    565
  1539   9    541    561    565
  1540  10    538    562    542
  1541   9    538    562    566
  1542   9    542    562    566
  1543  10    539    563    543
  1544   9    539    563    567
  1545   9    543    563    567
  1546  10    540    564    544
  1547   9    540    564    568
  1548   9    544    564    568
  1549  11    545    569    549
  1550  12    545    569    439
  1551  12    549    569    439
  1552  11    546    570    550
  1553  12    546    570    616
  1554  12    550    570    616
  1555  11    547    571    551
  1556  12    547    571    701
  1557  12    551    571    701
  1558  11    548    572    552
  1559  12    548    572    658
  1560  12    552    572    658
  1561   1    445    573    586
  1562   2    445    573    589
  1563   1    445    573    583
  1564   2    445    573    463
  1565   2    586    573    589
  1566   1    586    573    583
  1567   2    586    573    463
  1568   2    583    573    589
  1569   3    589    573    463
  1570   2    583    573    463
  1571   1    578    574    585
  1572   2    578    574    546
  1573   1    578    574    540
  1574   2    578    574    596
  1575   2    585    574    546
  1576   1    585    574    540
  1577   2    585    574    596
  1578   2    540    574    546
  1579   3    546    574    596
  1580   2    540    574    596
  1581   1    711    575    588
  1582   2    711    575    591
  1583   1    711    575    581
  1584   2    711    575    725
  1585   2    588    575    591
  1586   1    588    575    581
  1587   2    588    575    725
  1588   2    581    575    591
  1589   3    591    575    725
  1590   2    581    575    725
  1591   1    580    576    587
  1592   2    580    576    636
  1593   1    580    576    626
  1594   2    580    576    594
  1595   2    587    576    636
  1596   1    587    576    626
  1597   2    587    576    594
  1598   2    626    576    636
  1599   3    636    576    594
  1600   2    626    576    594
  1601   4    185    577    597
  1602   5    705    577    597
  1603   6    705    577    185
  1604   5    574    578    598
  1605   6    574    578    978
  1606   4    978    578    598
  1607   5    443    579    599
  1608   6    443    579    979
  1609   4    979    579    599
  1610   5    576    580    600
  1611   6    576    580    188
  1612   4    188    580    600
  1613   5    575    581    605
  1614   6    575    581    973
  1615   4    973    581    605
  1616   6    532    582    182
  1617   4    182    582    606
  1618   5    532    582    606
  1619   6    573    583    183
  1620   4    183    583    607
  1621   5    573    583    607
  1622   5    618    584    608
  1623   4    976    584    608
  1624   6    618    584    976
  1625   5    574    585    993
  1626   5    574    585    605
  1627   7    993    585    605
  1628   5    573    586    202
  1629   5    573    586    606
  1630   7    202    586    606
  1631   5    576    587    203
  1632   5    576    587    607
  1633   7    203    587    607
  1634   5    575    588    996
  1635   5    575    588    608
  1636   7    996    588    608
  1637   8    573    589    613
  1638   8    618    590    614
  1639   8    575    591    615
  1640   8    532    592    616
  1641   8    443    593    613
  1642   8    576    594    614
  1643   8    705    595    615
  1644   8    574    596    616
  1645  10    189    597    577
  1646   9    189    597    601
  1647   9    577    597    601
  1648   9    578    598    602
  1649  10    578    598    982
  1650   9    982    598    602
  1651   9    579    599    603
  1652  10    579    599    983
  1653   9    983    599    603
  1654  10    192    600    580
  1655   9    192    600    604
  1656   9    580    600    604
  1657  10    581    605    585
  1658   9    581    605    609
  1659   9    585    605    609
  1660  10    582    606    586
  1661   9    582    606    610
  1662   9    586    606    610
  1663  10    583    607    587
  1664   9    583    607    611
  1665   9    587    607    611
  1666  10    584    608    588
  1667   9    584    608    612
  1668   9    588    608    612
  1669  11    589    613    593
  1670  12    589    613    483
  1671  12    593    613    483
  1672  11    590    614    594
  1673  12    590    614    660
  1674  12    594    614    660
  1675  11    591    615    595
  1676  12    591    615    745
  1677  12    595    615    745
  1678  12    592    616    570
  1679  12    596    616    570
  1680  11    592    616    596
  1681   1    489    617    630
  1682   2    489    617    633
  1683   1    489    617    627
  1684   2    489    617    507
  1685   2    630    617    633
  1686   1    630    617    627
  1687   2    630    617    507
  1688   2    627    617    633
  1689   3    633    617    507
  1690   2    627    617    507
  1691   1    622    618    629
  1692   2    622    618    590
  1693   1    622    618    584
  1694   2    622    618    640
  1695   2    629    618    590
  1696   1    629    618    584
  1697   2    629    618    640
  1698   2    584    618    590
  1699   3    590    618    640
  1700   2    584    618    640
  1701   1    755    619    632
  1702   2    755    619    635
  1703   1    755    619    625
  1704   2    755    619    769
  1705   2    632    619    635
  1706   1    632    619    625
  1707   2    632    619    769
  1708   2    625    619    635
  1709   3    635    619    769
  1710   2    625    619    769
  1711   1    624    620    631
  1712   2    624    620    548
  1713   1    624    620    538
  1714   2    624    620    638
  1715   2    631    620    548
  1716   1    631    620    538
  1717   2    631    620    638
  1718   2    538    620    548
  1719   3    548    620    638
  1720   2    538    620    638
  1721   4    229    621    641
  1722   5    749    621    641
  1723   6    749    621    229
  1724   5    618    622    642
  1725   6    618    622   1022
  1726   4   1022    622    642
  1727   5    487    623    643
  1728   6    487    623   1023
  1729   4   1023    623    643
  1730   5    620    624    644
  1731   6    620    624    232
  1732   4    232    624    644
  1733   5    619    625    649
  1734   6    619    625   1017
  1735   4   1017    625    649
  1736   6    576    626    226
  1737   4    226    626    650
  1738   5    576    626    650
  1739   6    617    627    227
  1740   4    227    627    651
  1741   5    617    627    651
  1742   5    530    628    652
  1743   6    530    628   1020
  1744   4   1020    628    652
  1745   5    618    629   1037
  1746   5    618    629    649
  1747   7   1037    629    649
  1748   5    617    630    246
  1749   5    617    630    650
  1750   7    246    630    650
  1751   5    620    631    247
  1752   5    620    631    651
  1753   7    247    631    651
  1754   5    619    632   1040
  1755   5    619    632    652
  1756   7   1040    632    652
  1757   8    617    633    657
  1758   8    530    634    658
  1759   8    619    635    659
  1760   8    576    636    660
  1761   8    487    637    657
  1762   8    620    638    658
  1763   8    749    639    659
  1764   8    618    640    660
  1765  10    233    641    621
  1766   9    233    641    645
  1767   9    621    641    645
  1768   9    622    642    646
  1769  10    622    642   1026
  1770   9   1026    642    646
  1771   9    623    643    647
  1772  10    623    643   1027
  1773   9   1027    643    647
  1774  10    236    644    624
  1775   9    236    644    648
  1776   9    624    644    648
  1777  10    625    649    629
  1778   9    625    649    653
  1779   9    629    649    653
  1780  10    626    650    630
  1781   9    626    650    654
  1782   9    630    650    654
  1783  10    627    651    631
  1784   9    627    651    655
  1785   9    631    651    655
  1786  10    628    652    632
  1787   9    628    652    656
  1788   9    632    652    656
  1789  11    633    657    637
  1790  12    633    657    527
  1791  12    637    657    527
  1792  11    634    658    638
  1793  12    634    658    572
  1794  12    638    658    572
  1795  11    635    659    639
  1796  12    635    659    789
  1797  12    639    659    789
  1798  12    636    660    614
  1799  12    640    660    614
  1800  11    636    660    640
  1801   1    533    661    674
  1802   2    533    661    677
  1803   1    533    661    671
  1804   2    533    661    551
  1805   2    674    661    677
  1806   1    674    661    671
  1807   2    674    661    551
  1808   2    671    661    677
  1809   3    677    661    551
  1810   2    671    661    551
  1811   1    666    662    673
  1812   2    666    662    766
  1813   1    666    662    760
  1814   2    666    662    684
  1815   2    673    662    766
  1816   1    673    662    760
  1817   2    673    662    684
  1818   2    760    662    766
  1819   3    766    662    684
  1820   2    760    662    684
  1821   1    403    663    676
  1822   2    403    663    679
  1823   1    403    663    669
  1824   2    403    663    417
  1825   2    676    663    679
  1826   1    676    663    669
  1827   2    676    663    417
  1828   2    669    663    679
  1829   3    679    663    417
  1830   2    669    663    417
  1831   1    668    664    675
  1832   2    668    664    724
  1833   1    668    664    714
  1834   2    668    664    682
  1835   2    675    664    724
  1836   1    675    664    714
  1837   2    675    664    682
  1838   2    714    664    724
  1839   3    724    664    682
  1840   2    714    664    682
  1841   5    397    665    685
  1842   6    397    665    273
  1843   4    273    665    685
  1844   5    662    666    686
  1845   6    662    666   1066
  1846   4   1066    666    686
  1847   5    531    667    687
  1848   6    531    667   1067
  1849   4   1067    667    687
  1850   5    664    668    688
  1851   6    664    668    276
  1852   4    276    668    688
  1853   5    663    669    693
  1854   6    663    669   1061
  1855   4   1061    669    693
  1856   4    270    670    694
  1857   6    752    670    270
  1858   5    752    670    694
  1859   6    661    671    271
  1860   4    271    671    695
  1861   5    661    671    695
  1862   5    706    672    696
  1863   4   1064    672    696
  1864   6    706    672   1064
  1865   5    662    673   1081
  1866   5    662    673    693
  1867   7   1081    673    693
  1868   5    661    674    290
  1869   5    661    674    694
  1870   7    290    674    694
  1871   5    664    675    291
  1872   5    664    675    695
  1873   7    291    675    695
  1874   5    663    676   1084
  1875   5    663    676    696
  1876   7   1084    676    696
  1877   8    661    677    701
  1878   8    706    678    702
  1879   8    663    679    703
  1880   8    752    680    704
  1881   8    531    681    701
  1882   8    664    682    702
  1883   8    397    683    703
  1884   8    662    684    704
  1885  10    277    685    665
  1886   9    277    685    689
  1887   9    665    685    689
  1888   9    666    686    690
  1889  10    666    686   1070
  1890   9   1070    686    690
  1891   9    667    687    691
  1892  10    667    687   1071
  1893   9   1071    687    691
  1894  10    280    688    668
  1895   9    280    688    692
  1896   9    668    688    692
  1897  10    669    693    673
  1898   9    669    693    697
  1899   9    673    693    697
  1900  10    670    694    674
  1901   9    670    694    698
  1902   9    674    694    698
  1903  10    671    695    675
  1904   9    671    695    699
  1905   9    675    695    699
  1906  10    672    696    676
  1907   9    672    696    700
  1908   9    676    696    700
  1909  11    677    701    681
  1910  12    677    701    571
  1911  12    681    701    571
  1912  11    678    702    682
  1913  12    678    702    748
  1914  12    682    702    748
  1915  12    679    703    437
  1916  12    683    703    437
  1917  11    679    703    683
  1918  11    680    704    684
  1919  12    680    704    790
  1920  12    684    704    790
  1921   1    577    705    718
  1922   2    577    705    721
  1923   1    577    705    715
  1924   2    577    705    595
  1925   2    718    705    721
  1926   1    718    705    715
  1927   2    718    705    595
  1928   2    715    705    721
  1929   3    721    705    595
  1930   2    715    705    595
  1931   1    710    706    717
  1932   2    710    706    678
  1933   1    710    706    672
  1934   2    710    706    728
  1935   2    717    706    678
  1936   1    717    706    672
  1937   2    717    706    728
  1938   2    672    706    678
  1939   3    678    706    728
  1940   2    672    706    728
  1941   1    447    707    720
  1942   2    447    707    723
  1943   1    447    707    713
  1944   2    447    707    461
  1945   2    720    707    723
  1946   1    720    707    713
  1947   2    720    707    461
  1948   2    713    707    723
  1949   3    723    707    461
  1950   2    713    707    461
  1951   1    712    708    719
  1952   2    712    708    768
  1953   1    712    708    758
  1954   2    712    708    726
  1955   2    719    708    768
  1956   1    719    708    758
  1957   2    719    708    726
  1958   2    758    708    768
  1959   3    768    708    726
  1960   2    758    708    726
  1961   5    441    709    729
  1962   6    441    709    317
  1963   4    317    709    729
  1964   5    706    710    730
  1965   6    706    710   1110
  1966   4   1110    710    730
  1967   5    575    711    731
  1968   6    575    711   1111
  1969   4   1111    711    731
  1970   5    708    712    732
  1971   6    708    712    320
  1972   4    320    712    732
  1973   5    707    713    737
  1974   6    707    713   1105
  1975   4   1105    713    737
  1976   6    664    714    314
  1977   4    314    714    738
  1978   5    664    714    738
  1979   6    705    715    315
  1980   4    315    715    739
  1981   5    705    715    739
  1982   5    750    716    740
  1983   4   1108    716    740
  1984   6    750    716   1108
  1985   5    706    717   1125
  1986   5    706    717    737
  1987   7   1125    717    737
  1988   5    705    718    334
  1989   5    705    718    738
  1990   7    334    718    738
  1991   5    708    719    335
  1992   5    708    719    739
  1993   7    335    719    739
  1994   5    707    720   1128
  1995   5    707    720    740
  1996   7   1128    720    740
  1997   8    705    721    745
  1998   8    750    722    746
  1999   8    707    723    747
  2000   8    664    724    748
  2001   8    575    725    745
  2002   8    708    726    746
  2003   8    441    727    747
  2004   8    706    728    748
  2005  10    321    729    709
  2006   9    321    729    733
  2007   9    709    729    733
  2008   9    710    730    734
  2009  10    710    730   1114
  2010   9   1114    730    734
  2011   9    711    731    735
  2012  10    711    731   1115
  2013   9   1115    731    735
  2014  10    324    732    712
  2015   9    324    732    736
  2016   9    712    732    736
  2017  10    713    737    717
  2018   9    713    737    741
  2019   9    717    737    741
  2020  10    714    738    718
  2021   9    714    738    742
  2022   9    718    738    742
  2023  10    715    739    719
  2024   9    715    739    743
  2025   9    719    739    743
  2026  10    716    740    720
  2027   9    716    740    744
  2028   9    720    740    744
  2029  11    721    745    725
  2030  12    721    745    615
  2031  12    725    745    615
  2032  11    722    746    726
  2033  12    722    746    792
  2034  12    726    746    792
  2035  12    723    747    481
  2036  12    727    747    481
  2037  11    723    747    727
  2038  12    724    748    702
  2039  12    728    748    702
  2040  11    724    748    728
  2041   1    621    749    762
  2042   2    621    749    765
  2043   1    621    749    759
  2044   2    621    749    639
  2045   2    762    749    765
  2046   1    762    749    759
  2047   2    762    749    639
  2048   2    759    749    765
  2049   3    765    749    639
  2050   2    759    749    639
  2051   1    754    750    761
  2052   2    754    750    722
  2053   1    754    750    716
  2054   2    754    750    772
  2055   2    761    750    722
  2056   1    761    750    716
  2057   2    761    750    772
  2058   2    716    750    722
  2059   3    722    750    772
  2060   2    716    750    772
  2061   1    491    751    764
  2062   2    491    751    767
  2063   1    491    751    757
  2064   2    491    751    505
  2065   2    764    751    767
  2066   1    764    751    757
  2067   2    764    751    505
  2068   2    757    751    767
  2069   3    767    751    505
  2070   2    757    751    505
  2071   1    756    752    763
  2072   2    756    752    680
  2073   1    756    752    670
  2074   2    756    752    770
  2075   2    763    752    680
  2076   1    763    752    670
  2077   2    763    752    770
  2078   2    670    752    680
  2079   3    680    752    770
  2080   2    670    752    770
  2081   5    485    753    773
  2082   6    485    753    361
  2083   4    361    753    773
  2084   5    750    754    774
  2085   6    750    754   1154
  2086   4   1154    754    774
  2087   5    619    755    775
  2088   6    619    755   1155
  2089   4   1155    755    775
  2090   5    752    756    776
  2091   6    752    756    364
  2092   4    364    756    776
  2093   5    751    757    781
  2094   6    751    757   1149
  2095   4   1149    757    781
  2096   6    708    758    358
  2097   4    358    758    782
  2098   5    708    758    782
  2099   6    749    759    359
  2100   4    359    759    783
  2101   5    749    759    783
  2102   5    662    760    784
  2103   6    662    760   1152
  2104   4   1152    760    784
  2105   5    750    761   1169
  2106   5    750    761    781
  2107   7   1169    761    781
  2108   5    749    762    378
  2109   5    749    762    782
  2110   7    378    762    782
  2111   5    752    763    379
  2112   5    752    763    783
  2113   7    379    763    783
  2114   5    751    764   1172
  2115   5    751    764    784
  2116   7   1172    764    784
  2117   8    749    765    789
  2118   8    662    766    790
  2119   8    751    767    791
  2120   8    708    768    792
  2121   8    619    769    789
  2122   8    752    770    790
  2123   8    485    771    791
  2124   8    750    772    792
  2125  10    365    773    753
  2126   9    365    773    777
  2127   9    753    773    777
  2128   9    754    774    778
  2129  10    754    774   1158
  2130   9   1158    774    778
  2131   9    755    775    779
  2132  10    755    775   1159
  2133   9   1159    775    779
  2134  10    368    776    756
  2135   9    368    776    780
  2136   9    756    776    780
  2137  10    757    781    761
  2138   9    757    781    785
  2139   9    761    781    785
  2140  10    758    782    762
  2141   9    758    782    786
  2142   9    762    782    786
  2143  10    759    783    763
  2144   9    759    783    787
  2145   9    763    783    787
  2146  10    760    784    764
  2147   9    760    784    788
  2148   9    764    784    788
  2149  11    765    789    769
  2150  12    765    789    659
  2151  12    769    789    659
  2152  11    766    790    770
  2153  12    766    790    704
  2154  12    770    790    704
  2155  12    767    791    525
  2156  12    771    791    525
  2157  11    767    791    771
  2158  12    768    792    746
  2159  12    772    792    746
  2160  11    768    792    772
  2161   1   1061    793    806
  2162   2   1061    793    809
  2163   1   1061    793    803
  2164   2   1061    793   1079
  2165   2    806    793    809
  2166   1    806    793    803
  2167   2    806    793   1079
  2168   2    803    793    809
  2169   3    809    793   1079
  2170   2    803    793   1079
  2171   1    798    794    805
  2172   2    798    794    898
  2173   1    798    794    892
  2174   2    798    794    816
  2175   2    805    794    898
  2176   1    805    794    892
  2177   2    805    794    816
  2178   2    892    794    898
  2179   3    898    794    816
  2180   2    892    794    816
  2181   1    931    795    808
  2182   2    931    795    811
  2183   1    931    795    801
  2184   2    931    795    945
  2185   2    808    795    811
  2186   1    808    795    801
  2187   2    808    795    945
  2188   2    801    795    811
  2189   3    811    795    945
  2190   2    801    795    945
  2191   1    800    796    807
  2192   2    800    796    856
  2193   1    800    796    846
  2194   2    800    796    814
  2195   2    807    796    856
  2196   1    807    796    846
  2197   2    807    796    814
  2198   2    846    796    856
  2199   3    856    796    814
  2200   2    846    796    814
  2201   4    405    797    817
  2202   5    925    797    817
  2203   6    925    797    405
  2204   5    794    798    818
  2205   6    794    798     10
  2206   4     10    798    818
  2207   4     11    799    819
  2208   5   1059    799    819
  2209   6   1059    799     11
  2210   5    796    800    820
  2211   6    796    800    408
  2212   4    408    800    820
  2213   6    795    801      5
  2214   4      5    801    825
  2215   5    795    801    825
  2216   4    402    802    826
  2217   6    884    802    402
  2218   5    884    802    826
  2219   6    793    803    403
  2220   4    403    803    827
  2221   5    793    803    827
  2222   4      8    804    828
  2223   6    838    804      8
  2224   5    838    804    828
  2225   5    794    805     25
  2226   5    794    805    825
  2227   7     25    805    825
  2228   5    793    806    422
  2229   5    793    806    826
  2230   7    422    806    826
  2231   5    796    807    423
  2232   5    796    807    827
  2233   7    423    807    827
  2234   5    795    808     28
  2235   5    795    808    828
  2236   7     28    808    828
  2237   8    793    809    833
  2238   8    838    810    834
  2239   8    795    811    835
  2240   8    884    812    836
  2241   8   1059    813    833
  2242   8    796    814    834
  2243   8    925    815    835
  2244   8    794    816    836
  2245  10    409    817    797
  2246   9    409    817    821
  2247   9    797    817    821
  2248  10     14    818    798
  2249   9     14    818    822
  2250   9    798    818    822
  2251  10     15    819    799
  2252   9     15    819    823
  2253   9    799    819    823
  2254  10    412    820    800
  2255   9    412    820    824
  2256   9    800    820    824
  2257  10    801    825    805
  2258   9    801    825    829
  2259   9    805    825    829
  2260  10    802    826    806
  2261   9    802    826    830
  2262   9    806    826    830
  2263  10    803    827    807
  2264   9    803    827    831
  2265   9    807    827    831
  2266  10    804    828    808
  2267   9    804    828    832
  2268   9    808    828    832
  2269  11    809    833    813
  2270  12    809    833   1099
  2271  12    813    833   1099
  2272  11    810    834    814
  2273  12    810    834    880
  2274  12    814    834    880
  2275  11    811    835    815
  2276  12    811    835    965
  2277  12    815    835    965
  2278  11    812    836    816
  2279  12    812    836    922
  2280  12    816    836    922
  2281   1   1105    837    850
  2282   2   1105    837    853
  2283   1   1105    837    847
  2284   2   1105    837   1123
  2285   2    850    837    853
  2286   1    850    837    847
  2287   2    850    837   1123
  2288   2    847    837    853
  2289   3    853    837   1123
  2290   2    847    837   1123
  2291   1    842    838    849
  2292   2    842    838    810
  2293   1    842    838    804
  2294   2    842    838    860
  2295   2    849    838    810
  2296   1    849    838    804
  2297   2    849    838    860
  2298   2    804    838    810
  2299   3    810    838    860
  2300   2    804    838    860
  2301   1    975    839    852
  2302   2    975    839    855
  2303   1    975    839    845
  2304   2    975    839    989
  2305   2    852    839    855
  2306   1    852    839    845
  2307   2    852    839    989
  2308   2    845    839    855
  2309   3    855    839    989
  2310   2    845    839    989
  2311   1    844    840    851
  2312   2    844    840    900
  2313   1    844    840    890
  2314   2    844    840    858
  2315   2    851    840    900
  2316   1    851    840    890
  2317   2    851    840    858
  2318   2    890    840    900
  2319   3    900    840    858
  2320   2    890    840    858
  2321   4    449    841    861
  2322   5    969    841    861
  2323   6    969    841    449
  2324   5    838    842    862
  2325   6    838    842     54
  2326   4     54    842    862
  2327   4     55    843    863
  2328   5   1103    843    863
  2329   6   1103    843     55
  2330   5    840    844    864
  2331   6    840    844    452
  2332   4    452    844    864
  2333   6    839    845     49
  2334   4     49    845    869
  2335   5    839    845    869
  2336   6    796    846    446
  2337   4    446    846    870
  2338   5    796    846    870
  2339   6    837    847    447
  2340   4    447    847    871
  2341   5    837    847    871
  2342   4     52    848    872
  2343   6    882    848     52
  2344   5    882    848    872
  2345   5    838    849     69
  2346   5    838    849    869
  2347   7     69    849    869
  2348   5    837    850    466
  2349   5    837    850    870
  2350   7    466    850    870
  2351   5    840    851    467
  2352   5    840    851    871
  2353   7    467    851    871
  2354   5    839    852     72
  2355   5    839    852    872
  2356   7     72    852    872
  2357   8    837    853    877
  2358   8    882    854    878
  2359   8    839    855    879
  2360   8    796    856    880
  2361   8   1103    857    877
  2362   8    840    858    878
  2363   8    969    859    879
  2364   8    838    860    880
  2365  10    453    861    841
  2366   9    453    861    865
  2367   9    841    861    865
  2368  10     58    862    842
  2369   9     58    862    866
  2370   9    842    862    866
  2371  10     59    863    843
  2372   9     59    863    867
  2373   9    843    863    867
  2374  10    456    864    844
  2375   9    456    864    868
  2376   9    844    864    868
  2377  10    845    869    849
  2378   9    845    869    873
  2379   9    849    869    873
  2380  10    846    870    850
  2381   9    846    870    874
  2382   9    850    870    874
  2383  10    847    871    851
  2384   9    847    871    875
  2385   9    851    871    875
  2386  10    848    872    852
  2387   9    848    872    876
  2388   9    852    872    876
  2389  11    853    877    857
  2390  12    853    877   1143
  2391  12    857    877   1143
  2392  11    854    878    858
  2393  12    854    878    924
  2394  12    858    878    924
  2395  11    855    879    859
  2396  12    855    879   1009
  2397  12    859    879   1009
  2398  12    856    880    834
  2399  12    860    880    834
  2400  11    856    880    860
  2401   1   1149    881    894
  2402   2   1149    881    897
  2403   1   1149    881    891
  2404   2   1149    881   1167
  2405   2    894    881    897
  2406   1    894    881    891
  2407   2    894    881   1167
  2408   2    891    881    897
  2409   3    897    881   1167
  2410   2    891    881   1167
  2411   1    886    882    893
  2412   2    886    882    854
  2413   1    886    882    848
  2414   2    886    882    904
  2415   2    893    882    854
  2416   1    893    882    848
  2417   2    893    882    904
  2418   2    848    882    854
  2419   3    854    882    904
  2420   2    848    882    904
  2421   1   1019    883    896
  2422   2   1019    883    899
  2423   1   1019    883    889
  2424   2   1019    883   1033
  2425   2    896    883    899
  2426   1    896    883    889
  2427   2    896    883   1033
  2428   2    889    883    899
  2429   3    899    883   1033
  2430   2    889    883   1033
  2431   1    888    884    895
  2432   2    888    884    812
  2433   1    888    884    802
  2434   2    888    884    902
  2435   2    895    884    812
  2436   1    895    884    802
  2437   2    895    884    902
  2438   2    802    884    812
  2439   3    812    884    902
  2440   2    802    884    902
  2441   4    493    885    905
  2442   5   1013    885    905
  2443   6   1013    885    493
  2444   5    882    886    906
  2445   6    882    886     98
  2446   4     98    886    906
  2447   4     99    887    907
  2448   5   1147    887    907
  2449   6   1147    887     99
  2450   5    884    888    908
  2451   6    884    888    496
  2452   4    496    888    908
  2453   6    883    889     93
  2454   4     93    889    913
  2455   5    883    889    913
  2456   6    840    890    490
  2457   4    490    890    914
  2458   5    840    890    914
  2459   6    881    891    491
  2460   4    491    891    915
  2461   5    881    891    915
  2462   6    794    892     96
  2463   4     96    892    916
  2464   5    794    892    916
  2465   5    882    893    113
  2466   5    882    893    913
  2467   7    113    893    913
  2468   5    881    894    510
  2469   5    881    894    914
  2470   7    510    894    914
  2471   5    884    895    511
  2472   5    884    895    915
  2473   7    511    895    915
  2474   5    883    896    116
  2475   5    883    896    916
  2476   7    116    896    916
  2477   8    881    897    921
  2478   8    794    898    922
  2479   8    883    899    923
  2480   8    840    900    924
  2481   8   1147    901    921
  2482   8    884    902    922
  2483   8   1013    903    923
  2484   8    882    904    924
  2485  10    497    905    885
  2486   9    497    905    909
  2487   9    885    905    909
  2488  10    102    906    886
  2489   9    102    906    910
  2490   9    886    906    910
  2491  10    103    907    887
  2492   9    103    907    911
  2493   9    887    907    911
  2494  10    500    908    888
  2495   9    500    908    912
  2496   9    888    908    912
  2497  10    889    913    893
  2498   9    889    913    917
  2499   9    893    913    917
  2500  10    890    914    894
  2501   9    890    914    918
  2502   9    894    914    918
  2503  10    891    915    895
  2504   9    891    915    919
  2505   9    895    915    919
  2506  10    892    916    896
  2507   9    892    916    920
  2508   9    896    916    920
  2509  11    897    921    901
  2510  12    897    921   1187
  2511  12    901    921   1187
  2512  11    898    922    902
  2513  12    898    922    836
  2514  12    902    922    836
  2515  11    899    923    903
  2516  12    899    923   1053
  2517  12    903    923   1053
  2518  12    900    924    878
  2519  12    904    924    878
  2520  11    900    924    904
  2521   1    797    925    938
  2522   2    797    925    941
  2523   1    797    925    935
  2524   2    797    925    815
  2525   2    938    925    941
  2526   1    938    925    935
  2527   2    938    925    815
  2528   2    935    925    941
  2529   3    941    925    815
  2530   2    935    925    815
  2531   1    930    926    937
  2532   2    930    926   1030
  2533   1    930    926   1024
  2534   2    930    926    948
  2535   2    937    926   1030
  2536   1    937    926   1024
  2537   2    937    926    948
  2538   2   1024    926   1030
  2539   3   1030    926    948
  2540   2   1024    926    948
  2541   1   1063    927    940
  2542   2   1063    927    943
  2543   1   1063    927    933
  2544   2   1063    927   1077
  2545   2    940    927    943
  2546   1    940    927    933
  2547   2    940    927   1077
  2548   2    933    927    943
  2549   3    943    927   1077
  2550   2    933    927   1077
  2551   1    932    928    939
  2552   2    932    928    988
  2553   1    932    928    978
  2554   2    932    928    946
  2555   2    939    928    988
  2556   1    939    928    978
  2557   2    939    928    946
  2558   2    978    928    988
  2559   3    988    928    946
  2560   2    978    928    946
  2561   4    537    929    949
  2562   5   1057    929    949
  2563   6   1057    929    537
  2564   5    926    930    950
  2565   6    926    930    142
  2566   4    142    930    950
  2567   5    795    931    951
  2568   6    795    931    143
  2569   4    143    931    951
  2570   5    928    932    952
  2571   6    928    932    540
  2572   4    540    932    952
  2573   6    927    933    137
  2574   4    137    933    957
  2575   5    927    933    957
  2576   4    534    934    958
  2577   6   1016    934    534
  2578   5   1016    934    958
  2579   6    925    935    535
  2580   4    535    935    959
  2581   5    925    935    959
  2582   4    140    936    960
  2583   6    970    936    140
  2584   5    970    936    960
  2585   5    926    937    157
  2586   5    926    937    957
  2587   7    157    937    957
  2588   5    925    938    554
  2589   5    925    938    958
  2590   7    554    938    958
  2591   5    928    939    555
  2592   5    928    939    959
  2593   7    555    939    959
  2594   5    927    940    160
  2595   5    927    940    960
  2596   7    160    940    960
  2597   8    925    941    965
  2598   8    970    942    966
  2599   8    927    943    967
  2600   8   1016    944    968
  2601   8    795    945    965
  2602   8    928    946    966
  2603   8   1057    947    967
  2604   8    926    948    968
  2605  10    541    949    929
  2606   9    541    949    953
  2607   9    929    949    953
  2608  10    146    950    930
  2609   9    146    950    954
  2610   9    930    950    954
  2611  10    147    951    931
  2612   9    147    951    955
  2613   9    931    951    955
  2614  10    544    952    932
  2615   9    544    952    956
  2616   9    932    952    956
  2617  10    933    957    937
  2618   9    933    957    961
  2619   9    937    957    961
  2620  10    934    958    938
  2621   9    934    958    962
  2622   9    938    958    962
  2623  10    935    959    939
  2624   9    935    959    963
  2625   9    939    959    963
  2626  10    936    960    940
  2627   9    936    960    964
  2628   9    940    960    964
  2629  11    941    965    945
  2630  12    941    965    835
  2631  12    945    965    835
  2632  11    942    966    946
  2633  12    942    966   1012
  2634  12    946    966   1012
  2635  11    943    967    947
  2636  12    943    967   1097
  2637  12    947    967   1097
  2638  11    944    968    948
  2639  12    944    968   1054
  2640  12    948    968   1054
  2641   1    841    969    982
  2642   2    841    969    985
  2643   1    841    969    979
  2644   2    841    969    859
  2645   2    982    969    985
  2646   1    982    969    979
  2647   2    982    969    859
  2648   2    979    969    985
  2649   3    985    969    859
  2650   2    979    969    859
  2651   1    974    970    981
  2652   2    974    970    942
  2653   1    974    970    936
  2654   2    974    970    992
  2655   2    981    970    942
  2656   1    981    970    936
  2657   2    981    970    992
  2658   2    936    970    942
  2659   3    942    970    992
  2660   2    936    970    992
  2661   1   1107    971    984
  2662   2   1107    971    987
  2663   1   1107    971    977
  2664   2   1107    971   1121
  2665   2    984    971    987
  2666   1    984    971    977
  2667   2    984    971   1121
  2668   2    977    971    987
  2669   3    987    971   1121
  2670   2    977    971   1121
  2671   1    976    972    983
  2672   2    976    972   1032
  2673   1    976    972   1022
  2674   2    976    972    990
  2675   2    983    972   1032
  2676   1    983    972   1022
  2677   2    983    972    990
  2678   2   1022    972   1032
  2679   3   1032    972    990
  2680   2   1022    972    990
  2681   4    581    973    993
  2682   5   1101    973    993
  2683   6   1101    973    581
  2684   5    970    974    994
  2685   6    970    974    186
  2686   4    186    974    994
  2687   5    839    975    995
  2688   6    839    975    187
  2689   4    187    975    995
  2690   5    972    976    996
  2691   6    972    976    584
  2692   4    584    976    996
  2693   6    971    977    181
  2694   4    181    977   1001
  2695   5    971    977   1001
  2696   6    928    978    578
  2697   4    578    978   1002
  2698   5    928    978   1002
  2699   6    969    979    579
  2700   4    579    979   1003
  2701   5    969    979   1003
  2702   4    184    980   1004
  2703   6   1014    980    184
  2704   5   1014    980   1004
  2705   5    970    981    201
  2706   5    970    981   1001
  2707   7    201    981   1001
  2708   5    969    982    598
  2709   5    969    982   1002
  2710   7    598    982   1002
  2711   5    972    983    599
  2712   5    972    983   1003
  2713   7    599    983   1003
  2714   5    971    984    204
  2715   5    971    984   1004
  2716   7    204    984   1004
  2717   8    969    985   1009
  2718   8   1014    986   1010
  2719   8    971    987   1011
  2720   8    928    988   1012
  2721   8    839    989   1009
  2722   8    972    990   1010
  2723   8   1101    991   1011
  2724   8    970    992   1012
  2725  10    585    993    973
  2726   9    585    993    997
  2727   9    973    993    997
  2728  10    190    994    974
  2729   9    190    994    998
  2730   9    974    994    998
  2731  10    191    995    975
  2732   9    191    995    999
  2733   9    975    995    999
  2734  10    588    996    976
  2735   9    588    996   1000
  2736   9    976    996   1000
  2737  10    977   1001    981
  2738   9    977   1001   1005
  2739   9    981   1001   1005
  2740  10    978   1002    982
  2741   9    978   1002   1006
  2742   9    982   1002   1006
  2743  10    979   1003    983
  2744   9    979   1003   1007
  2745   9    983   1003   1007
  2746  10    980   1004    984
  2747   9    980   1004   1008
  2748   9    984   1004   1008
  2749  11    985   1009    989
  2750  12    985   1009    879
  2751  12    989   1009    879
  2752  11    986   1010    990
  2753  12    986   1010   1056
  2754  12    990   1010   1056
  2755  11    987   1011    991
  2756  12    987   1011   1141
  2757  12    991   1011   1141
  2758  12    988   1012    966
  2759  12    992   1012    966
  2760  11    988   1012    992
  2761   1    885   1013   1026
  2762   2    885   1013   1029
  2763   1    885   1013   1023
  2764   2    885   1013    903
  2765   2   1026   1013   1029
  2766   1   1026   1013   1023
  2767   2   1026   1013    903
  2768   2   1023   1013   1029
  2769   3   1029   1013    903
  2770   2   1023   1013    903
  2771   1   1018   1014   1025
  2772   2   1018   1014    986
  2773   1   1018   1014    980
  2774   2   1018   1014   1036
  2775   2   1025   1014    986
  2776   1   1025   1014    980
  2777   2   1025   1014   1036
  2778   2    980   1014    986
  2779   3    986   1014   1036
  2780   2    980   1014   1036
  2781   1   1151   1015   1028
  2782   2   1151   1015   1031
  2783   1   1151   1015   1021
  2784   2   1151   1015   1165
  2785   2   1028   1015   1031
  2786   1   1028   1015   1021
  2787   2   1028   1015   1165
  2788   2   1021   1015   1031
  2789   3   1031   1015   1165
  2790   2   1021   1015   1165
  2791   1   1020   1016   1027
  2792   2   1020   1016    944
  2793   1   1020   1016    934
  2794   2   1020   1016   1034
  2795   2   1027   1016    944
  2796   1   1027   1016    934
  2797   2   1027   1016   1034
  2798   2    934   1016    944
  2799   3    944   1016   1034
  2800   2    934   1016   1034
  2801   4    625   1017   1037
  2802   5   1145   1017   1037
  2803   6   1145   1017    625
  2804   5   1014   1018   1038
  2805   6   1014   1018    230
  2806   4    230   1018   1038
  2807   5    883   1019   1039
  2808   6    883   1019    231
  2809   4    231   1019   1039
  2810   5   1016   1020   1040
  2811   6   1016   1020    628
  2812   4    628   1020   1040
  2813   6   1015   1021    225
  2814   4    225   1021   1045
  2815   5   1015   1021   1045
  2816   6    972   1022    622
  2817   4    622   1022   1046
  2818   5    972   1022   1046
  2819   6   1013   1023    623
  2820   4    623   1023   1047
  2821   5   1013   1023   1047
  2822   6    926   1024    228
  2823   4    228   1024   1048
  2824   5    926   1024   1048
  2825   5   1014   1025    245
  2826   5   1014   1025   1045
  2827   7    245   1025   1045
  2828   5   1013   1026    642
  2829   5   1013   1026   1046
  2830   7    642   1026   1046
  2831   5   1016   1027    643
  2832   5   1016   1027   1047
  2833   7    643   1027   1047
  2834   5   1015   1028    248
  2835   5   1015   1028   1048
  2836   7    248   1028   1048
  2837   8   1013   1029   1053
  2838   8    926   1030   1054
  2839   8   1015   1031   1055
  2840   8    972   1032   1056
  2841   8    883   1033   1053
  2842   8   1016   1034   1054
  2843   8   1145   1035   1055
  2844   8   1014   1036   1056
  2845  10    629   1037   1017
  2846   9    629   1037   1041
  2847   9   1017   1037   1041
  2848  10    234   1038   1018
  2849   9    234   1038   1042
  2850   9   1018   1038   1042
  2851  10    235   1039   1019
  2852   9    235   1039   1043
  2853   9   1019   1039   1043
  2854  10    632   1040   1020
  2855   9    632   1040   1044
  2856   9   1020   1040   1044
  2857  10   1021   1045   1025
  2858   9   1021   1045   1049
  2859   9   1025   1045   1049
  2860  10   1022   1046   1026
  2861   9   1022   1046   1050
  2862   9   1026   1046   1050
  2863  10   1023   1047   1027
  2864   9   1023   1047   1051
  2865   9   1027   1047   1051
  2866  10   1024   1048   1028
  2867   9   1024   1048   1052
  2868   9   1028   1048   1052
  2869  11   1029   1053   1033
  2870  12   1029   1053    923
  2871  12   1033   1053    923
  2872  11   1030   1054   1034
  2873  12   1030   1054    968
  2874  12   1034   1054    968
  2875  11   1031   1055   1035
  2876  12   1031   1055   1185
  2877  12   1035   1055   1185
  2878  12   1032   1056   1010
  2879  12   1036   1056   1010
  2880  11   1032   1056   1036
  2881   1    929   1057   1070
  2882   2    929   1057   1073
  2883   1    929   1057   1067
  2884   2    929   1057    947
  2885   2   1070   1057   1073
  2886   1   1070   1057   1067
  2887   2   1070   1057    947
  2888   2   1067   1057   1073
  2889   3   1073   1057    947
  2890   2   1067   1057    947
  2891   1   1062   1058   1069
  2892   2   1062   1058   1162
  2893   1   1062   1058   1156
  2894   2   1062   1058   1080
  2895   2   1069   1058   1162
  2896   1   1069   1058   1156
  2897   2   1069   1058   1080
  2898   2   1156   1058   1162
  2899   3   1162   1058   1080
  2900   2   1156   1058   1080
  2901   1    799   1059   1072
  2902   2    799   1059   1075
  2903   1    799   1059   1065
  2904   2    799   1059    813
  2905   2   1072   1059   1075
  2906   1   1072   1059   1065
  2907   2   1072   1059    813
  2908   2   1065   1059   1075
  2909   3   1075   1059    813
  2910   2   1065   1059    813
  2911   1   1064   1060   1071
  2912   2   1064   1060   1120
  2913   1   1064   1060   1110
  2914   2   1064   1060   1078
  2915   2   1071   1060   1120
  2916   1   1071   1060   1110
  2917   2   1071   1060   1078
  2918   2   1110   1060   1120
  2919   3   1120   1060   1078
  2920   2   1110   1060   1078
  2921   5    793   1061   1081
  2922   6    793   1061    669
  2923   4    669   1061   1081
  2924   5   1058   1062   1082
  2925   6   1058   1062    274
  2926   4    274   1062   1082
  2927   5    927   1063   1083
  2928   6    927   1063    275
  2929   4    275   1063   1083
  2930   5   1060   1064   1084
  2931   6   1060   1064    672
  2932   4    672   1064   1084
  2933   6   1059   1065    269
  2934   4    269   1065   1089
  2935   5   1059   1065   1089
  2936   4    666   1066   1090
  2937   6   1148   1066    666
  2938   5   1148   1066   1090
  2939   6   1057   1067    667
  2940   4    667   1067   1091
  2941   5   1057   1067   1091
  2942   4    272   1068   1092
  2943   6   1102   1068    272
  2944   5   1102   1068   1092
  2945   5   1058   1069    289
  2946   5   1058   1069   1089
  2947   7    289   1069   1089
  2948   5   1057   1070    686
  2949   5   1057   1070   1090
  2950   7    686   1070   1090
  2951   5   1060   1071    687
  2952   5   1060   1071   1091
  2953   7    687   1071   1091
  2954   5   1059   1072    292
  2955   5   1059   1072   1092
  2956   7    292   1072   1092
  2957   8   1057   1073   1097
  2958   8   1102   1074   1098
  2959   8   1059   1075   1099
  2960   8   1148   1076   1100
  2961   8    927   1077   1097
  2962   8   1060   1078   1098
  2963   8    793   1079   1099
  2964   8   1058   1080   1100
  2965  10    673   1081   1061
  2966   9    673   1081   1085
  2967   9   1061   1081   1085
  2968  10    278   1082   1062
  2969   9    278   1082   1086
  2970   9   1062   1082   1086
  2971  10    279   1083   1063
  2972   9    279   1083   1087
  2973   9   1063   1083   1087
  2974  10    676   1084   1064
  2975   9    676   1084   1088
  2976   9   1064   1084   1088
  2977  10   1065   1089   1069
  2978   9   1065   1089   1093
  2979   9   1069   1089   1093
  2980  10   1066   1090   1070
  2981   9   1066   1090   1094
  2982   9   1070   1090   1094
  2983  10   1067   1091   1071
  2984   9   1067   1091   1095
  2985   9   1071   1091   1095
  2986  10   1068   1092   1072
  2987   9   1068   1092   1096
  2988   9   1072   1092   1096
  2989  11   1073   1097   1077
  2990  12   1073   1097    967
  2991  12   1077   1097    967
  2992  11   1074   1098   1078
  2993  12   1074   1098   1144
  2994  12   1078   1098   1144
  2995  12   1075   1099    833
  2996  12   1079   1099    833
  2997  11   1075   1099   1079
  2998  11   1076   1100   1080
  2999  12   1076   1100   1186
  3000  12   1080   1100   1186
  3001   1    973   1101   1114
  3002   2    973   1101   1117
  3003   1    973   1101   1111
  3004   2    973   1101    991
  3005   2   1114   1101   1117
  3006   1   1114   1101   1111
  3007   2   1114   1101    991
  3008   2   1111   1101   1117
  3009   3   1117   1101    991
  3010   2   1111   1101    991
  3011   1   1106   1102   1113
  3012   2   1106   1102   1074
  3013   1   1106   1102   1068
  3014   2   1106   1102   1124
  3015   2   1113   1102   1074
  3016   1   1113   1102   1068
  3017   2   1113   1102   1124
  3018   2   1068   1102   1074
  3019   3   1074   1102   1124
  3020   2   1068   1102   1124
  3021   1    843   1103   1116
  3022   2    843   1103   1119
  3023   1    843   1103   1109
  3024   2    843   1103    857
  3025   2   1116   1103   1119
  3026   1   1116   1103   1109
  3027   2   1116   1103    857
  3028   2   1109   1103   1119
  3029   3   1119   1103    857
  3030   2   1109   1103    857
  3031   1   1108   1104   1115
  3032   2   1108   1104   1164
  3033   1   1108   1104   1154
  3034   2   1108   1104   1122
  3035   2   1115   1104   1164
  3036   1   1115   1104   1154
  3037   2   1115   1104   1122
  3038   2   1154   1104   1164
  3039   3   1164   1104   1122
  3040   2   1154   1104   1122
  3041   5    837   1105   1125
  3042   6    837   1105    713
  3043   4    713   1105   1125
  3044   5   1102   1106   1126
  3045   6   1102   1106    318
  3046   4    318   1106   1126
  3047   5    971   1107   1127
  3048   6    971   1107    319
  3049   4    319   1107   1127
  3050   5   1104   1108   1128
  3051   6   1104   1108    716
  3052   4    716   1108   1128
  3053   6   1103   1109    313
  3054   4    313   1109   1133
  3055   5   1103   1109   1133
  3056   6   1060   1110    710
  3057   4    710   1110   1134
  3058   5   1060   1110   1134
  3059   6   1101   1111    711
  3060   4    711   1111   1135
  3061   5   1101   1111   1135
  3062   4    316   1112   1136
  3063   6   1146   1112    316
  3064   5   1146   1112   1136
  3065   5   1102   1113    333
  3066   5   1102   1113   1133
  3067   7    333   1113   1133
  3068   5   1101   1114    730
  3069   5   1101   1114   1134
  3070   7    730   1114   1134
  3071   5   1104   1115    731
  3072   5   1104   1115   1135
  3073   7    731   1115   1135
  3074   5   1103   1116    336
  3075   5   1103   1116   1136
  3076   7    336   1116   1136
  3077   8   1101   1117   1141
  3078   8   1146   1118   1142
  3079   8   1103   1119   1143
  3080   8   1060   1120   1144
  3081   8    971   1121   1141
  3082   8   1104   1122   1142
  3083   8    837   1123   1143
  3084   8   1102   1124   1144
  3085  10    717   1125   1105
  3086   9    717   1125   1129
  3087   9   1105   1125   1129
  3088  10    322   1126   1106
  3089   9    322   1126   1130
  3090   9   1106   1126   1130
  3091  10    323   1127   1107
  3092   9    323   1127   1131
  3093   9   1107   1127   1131
  3094  10    720   1128   1108
  3095   9    720   1128   1132
  3096   9   1108   1128   1132
  3097  10   1109   1133   1113
  3098   9   1109   1133   1137
  3099   9   1113   1133   1137
  3100  10   1110   1134   1114
  3101   9   1110   1134   1138
  3102   9   1114   1134   1138
  3103  10   1111   1135   1115
  3104   9   1111   1135   1139
  3105   9   1115   1135   1139
  3106  10   1112   1136   1116
  3107   9   1112   1136   1140
  3108   9   1116   1136   1140
  3109  11   1117   1141   1121
  3110  12   1117   1141   1011
  3111  12   1121   1141   1011
  3112  11   1118   1142   1122
  3113  12   1118   1142   1188
  3114  12   1122   1142   1188
  3115  12   1119   1143    877
  3116  12   1123   1143    877
  3117  11   1119   1143   1123
  3118  12   1120   1144   1098
  3119  12   1124   1144   1098
  3120  11   1120   1144   1124
  3121   1   1017   1145   1158
  3122   2   1017   1145   1161
  3123   1   1017   1145   1155
  3124   2   1017   1145   1035
  3125   2   1158   1145   1161
  3126   1   1158   1145   1155
  3127   2   1158   1145   1035
  3128   2   1155   1145   1161
  3129   3   1161   1145   1035
  3130   2   1155   1145   1035
  3131   1   1150   1146   1157
  3132   2   1150   1146   1118
  3133   1   1150   1146   1112
  3134   2   1150   1146   1168
  3135   2   1157   1146   1118
  3136   1   1157   1146   1112
  3137   2   1157   1146   1168
  3138   2   1112   1146   1118
  3139   3   1118   1146   1168
  3140   2   1112   1146   1168
  3141   1    887   1147   1160
  3142   2    887   1147   1163
  3143   1    887   1147   1153
  3144   2    887   1147    901
  3145   2   1160   1147   1163
  3146   1   1160   1147   1153
  3147   2   1160   1147    901
  3148   2   1153   1147   1163
  3149   3   1163   1147    901
  3150   2   1153   1147    901
  3151   1   1152   1148   1159
  3152   2   1152   1148   1076
  3153   1   1152   1148   1066
  3154   2   1152   1148   1166
  3155   2   1159   1148   1076
  3156   1   1159   1148   1066
  3157   2   1159   1148   1166
  3158   2   1066   1148   1076
  3159   3   1076   1148   1166
  3160   2   1066   1148   1166
  3161   5    881   1149   1169
  3162   6    881   1149    757
  3163   4    757   1149   1169
  3164   5   1146   1150   1170
  3165   6   1146   1150    362
  3166   4    362   1150   1170
  3167   5   1015   1151   1171
  3168   6   1015   1151    363
  3169   4    363   1151   1171
  3170   5   1148   1152   1172
  3171   6   1148   1152    760
  3172   4    760   1152   1172
  3173   6   1147   1153    357
  3174   4    357   1153   1177
  3175   5   1147   1153   1177
  3176   6   1104   1154    754
  3177   4    754   1154   1178
  3178   5   1104   1154   1178
  3179   6   1145   1155    755
  3180   4    755   1155   1179
  3181   5   1145   1155   1179
  3182   6   1058   1156    360
  3183   4    360   1156   1180
  3184   5   1058   1156   1180
  3185   5   1146   1157    377
  3186   5   1146   1157   1177
  3187   7    377   1157   1177
  3188   5   1145   1158    774
  3189   5   1145   1158   1178
  3190   7    774   1158   1178
  3191   5   1148   1159    775
  3192   5   1148   1159   1179
  3193   7    775   1159   1179
  3194   5   1147   1160    380
  3195   5   1147   1160   1180
  3196   7    380   1160   1180
  3197   8   1145   1161   1185
  3198   8   1058   1162   1186
  3199   8   1147   1163   1187
  3200   8   1104   1164   1188
  3201   8   1015   1165   1185
  3202   8   1148   1166   1186
  3203   8    881   1167   1187
  3204   8   1146   1168   1188
  3205  10    761   1169   1149
  3206   9    761   1169   1173
  3207   9   1149   1169   1173
  3208  10    366   1170   1150
  3209   9    366   1170   1174
  3210   9   1150   1170   1174
  3211  10    367   1171   1151
  3212   9    367   1171   1175
  3213   9   1151   1171   1175
  3214  10    764   1172   1152
  3215   9    764   1172   1176
  3216   9   1152   1172   1176
  3217  10   1153   1177   1157
  3218   9   1153   1177   1181
  3219   9   1157   1177   1181
  3220  10   1154   1178   1158
  3221   9   1154   1178   1182
  3222   9   1158   1178   1182
  3223  10   1155   1179   1159
  3224   9   1155   1179   1183
  3225   9   1159   1179   1183
  3226  10   1156   1180   1160
  3227   9   1156   1180   1184
  3228   9   1160   1180   1184
  3229  11   1161   1185   1165
  3230  12   1161   1185   1055
  3231  12   1165   1185   1055
  3232  11   1162   1186   1166
  3233  12   1162   1186   1100
  3234  12   1166   1186   1100
  3235  12   1163   1187    921
  3236  12   1167   1187    921
  3237  11   1163   1187   1167
  3238  12   1164   1188   1142
  3239  12   1168   1188   1142
  3240  11   1164   1188   1168
  3241  13   1190   1189   1191
  3242  13   1193   1192   1194
  3243  13   1196   1195   1197
  3244  13   1199   1198   1200
  3245  13   1202   1201   1203
  3246  13   1205   1204   1206
  3247  13   1208   1207   1209
  3248  13   1211   1210   1212
  3249  13   1214   1213   1215
  3250  13   1217   1216   1218
  3251  13   1220   1219   1221
  3252  13   1223   1222   1224
  3253  13   1226   1225   1227
  3254  13   1229   1228   1230
  3255  13   1232   1231   1233
  3256  13   1235   1234   1236
  3257  13   1238   1237   1239
  3258  13   1241   1240   1242
  3259  13   1244   1243   1245
  3260  13   1247   1246   1248
  3261  13   1250   1249   1251
  3262  13   1253   1252   1254
  3263  13   1256   1255   1257
  3264  13   1259   1258   1260
  3265  13   1262   1261   1263
  3266  13   1265   1264   1266
  3267  13   1268   1267   1269

Dihedrals

     1   1     14      1    269    289
     2   2     14      1    269   1065
     3   3     17      1    269    289
     4   4     17      1    269   1065
     5   1     11      1    269    289
     6   2     11      1    269   1065
     7   3    287      1    269    289
     8   4    287      1    269   1065
     9   1    269      1     14    818
    10   1    269      1     14     34
    11   3     17      1     14    818
    12   3     17      1     14     34
    13   1     11      1     14    818
    14   1     11      1     14     34
    15   3    287      1     14    818
    16   3    287      1     14     34
    17   5    269      1     17     41
    18   5     14      1     17     41
    19   5     11      1     17     41
    20   6    287      1     17     41
    21   1    269      1     11     35
    22   2    269      1     11    799
    23   1     14      1     11     35
    24   2     14      1     11    799
    25   3     17      1     11     35
    26   4     17      1     11    799
    27   3    287      1     11     35
    28   4    287      1     11    799
    29   5    269      1    287    307
    30   5     14      1    287    307
    31   6     17      1    287    307
    32   5     11      1    287    307
    33   1     13      2      6     26
    34   2     13      2      6    406
    35   3    106      2      6     26
    36   4    106      2      6    406
    37   1    100      2      6     26
    38   2    100      2      6    406
    39   3     24      2      6     26
    40   4     24      2      6    406
    41   1      6      2     13    421
    42   1      6      2     13     33
    43   3    106      2     13    421
    44   3    106      2     13     33
    45   1    100      2     13    421
    46   1    100      2     13     33
    47   3     24      2     13    421
    48   3     24      2     13     33
    49   5      6      2    106    130
    50   5     13      2    106    130
    51   5    100      2    106    130
    52   6     24      2    106    130
    53   1      6      2    100    124
    54   2      6      2    100    492
    55   1     13      2    100    124
    56   2     13      2    100    492
    57   3    106      2    100    124
    58   4    106      2    100    492
    59   3     24      2    100    124
    60   4     24      2    100    492
    61   5      6      2     24     44
    62   5     13      2     24     44
    63   6    106      2     24     44
    64   5    100      2     24     44
    65   1     16      3    139    159
    66   2     16      3    139    539
    67   3     19      3    139    159
    68   4     19      3    139    539
    69   1      9      3    139    159
    70   2      9      3    139    539
    71   3    153      3    139    159
    72   4    153      3    139    539
    73   1    139      3     16    424
    74   1    139      3     16     36
    75   3     19      3     16    424
    76   3     19      3     16     36
    77   1      9      3     16    424
    78   1      9      3     16     36
    79   3    153      3     16    424
    80   3    153      3     16     36
    81   5    139      3     19     43
    82   5     16      3     19     43
    83   5      9      3     19     43
    84   6    153      3     19     43
    85   1    139      3      9     33
    86   2    139      3      9    401
    87   1     16      3      9     33
    88   2     16      3      9    401
    89   3     19      3      9     33
    90   4     19      3      9    401
    91   3    153      3      9     33
    92   4    153      3      9    401
    93   5    139      3    153    173
    94   5     16      3    153    173
    95   6     19      3    153    173
    96   5      9      3    153    173
    97   1     15      4      8     28
    98   2     15      4      8    804
    99   3     64      4      8     28
   100   4     64      4      8    804
   101   1     54      4      8     28
   102   2     54      4      8    804
   103   3     22      4      8     28
   104   4     22      4      8    804
   105   1      8      4     15    819
   106   1      8      4     15     35
   107   3     64      4     15    819
   108   3     64      4     15     35
   109   1     54      4     15    819
   110   1     54      4     15     35
   111   3     22      4     15    819
   112   3     22      4     15     35
   113   5      8      4     64     88
   114   5     15      4     64     88
   115   5     54      4     64     88
   116   6     22      4     64     88
   117   1      8      4     54     78
   118   2      8      4     54    842
   119   1     15      4     54     78
   120   2     15      4     54    842
   121   3     64      4     54     78
   122   4     64      4     54    842
   123   3     22      4     54     78
   124   4     22      4     54    842
   125   5      8      4     22     42
   126   5     15      4     22     42
   127   6     64      4     22     42
   128   5     54      4     22     42
   129   7    801      5     25     29
   130   8    801      5     25    805
   131   9    133      5     25     29
   132  10    133      5     25    805
   133  11    795    801      5     25
   134  12     25      5    801    825
   135  13    133      5    801    795
   136  11    133      5    801    825
   137   1    146    133      5     25
   138   3    149    133      5     25
   139   1    143    133      5     25
   140   3     23    133      5     25
   141   2    146    133      5    801
   142   4    149    133      5    801
   143   2    143    133      5    801
   144   4     23    133      5    801
   145   9      2      6     26     30
   146  10      2      6     26    410
   147   7    406      6     26     30
   148   8    406      6     26    410
   149  11      2      6    406    430
   150  13      2      6    406    488
   151  12     26      6    406    430
   152  11    488    406      6     26
   153   7    407      7     27     31
   154   8    407      7     27    411
   155   9    267      7     27     31
   156  10    267      7     27    411
   157  11    397    407      7     27
   158  12     27      7    407    431
   159  13    267      7    407    397
   160  11    267      7    407    431
   161   1    280    267      7     27
   162   3    283    267      7     27
   163   1    273    267      7     27
   164   3     21    267      7     27
   165   2    280    267      7    407
   166   4    283    267      7    407
   167   2    273    267      7    407
   168   4     21    267      7    407
   169   9      4      8     28     32
   170  10      4      8     28    808
   171   7    804      8     28     32
   172   8    804      8     28    808
   173  11      4      8    804    828
   174  13      4      8    804    838
   175  12     28      8    804    828
   176  11    838    804      8     28
   177  10      3      9     33     13
   178   9      3      9     33     37
   179   8    401      9     33     13
   180   7    401      9     33     37
   181  11      3      9    401    421
   182  13      3      9    401    529
   183  12     33      9    401    421
   184  11    529    401      9     33
   185  10     92     10     34     14
   186   9     92     10     34     38
   187   8    798     10     34     14
   188   7    798     10     34     38
   189   1     96     92     10     34
   190   1    103     92     10     34
   191   3     20     92     10     34
   192   3    110     92     10     34
   193   2     96     92     10    798
   194   2    103     92     10    798
   195   4     20     92     10    798
   196   4    110     92     10    798
   197  11    794    798     10     34
   198  12     34     10    798    818
   199  13     92     10    798    794
   200  11     92     10    798    818
   201  10      1     11     35     15
   202   9      1     11     35     39
   203   8    799     11     35     15
   204   7    799     11     35     39
   205  11      1     11    799    819
   206  13      1     11    799   1059
   207  12     35     11    799    819
   208  11   1059    799     11     35
   209  10     46     12     36     16
   210   9     46     12     36     40
   211   8    404     12     36     16
   212   7    404     12     36     40
   213   1     50     46     12     36
   214   1     57     46     12     36
   215   3     18     46     12     36
   216   3     68     46     12     36
   217   2     50     46     12    404
   218   2     57     46     12    404
   219   4     18     46     12    404
   220   4     68     46     12    404
   221  11    400    404     12     36
   222  12     36     12    404    424
   223  13     46     12    404    400
   224  11     46     12    404    424
   225  10      2     13    421    401
   226   9      2     13    421    425
   227  14     33     13    421    401
   228  15     33     13    421    425
   229  10      2     13     33      9
   230   9      2     13     33     37
   231  14    421     13     33      9
   232  15    421     13     33     37
   233  10      1     14    818    798
   234   9      1     14    818    822
   235  14     34     14    818    798
   236  15     34     14    818    822
   237  10      1     14     34     10
   238   9      1     14     34     38
   239  14    818     14     34     10
   240  15    818     14     34     38
   241  10      4     15    819    799
   242   9      4     15    819    823
   243  14     35     15    819    799
   244  15     35     15    819    823
   245  10      4     15     35     11
   246   9      4     15     35     39
   247  14    819     15     35     11
   248  15    819     15     35     39
   249  10      3     16    424    404
   250   9      3     16    424    428
   251  14     36     16    424    404
   252  15     36     16    424    428
   253  10      3     16     36     12
   254   9      3     16     36     40
   255  14    424     16     36     12
   256  15    424     16     36     40
   257  16      1     17     41     21
   258  17      1     17     41    307
   259  16     46     18     42     22
   260  17     46     18     42     88
   261   5     50     46     18     42
   262   5     57     46     18     42
   263   5     12     46     18     42
   264   6     68     46     18     42
   265  16      3     19     43     23
   266  17      3     19     43    173
   267  16     92     20     44     24
   268  17     92     20     44    130
   269   5     96     92     20     44
   270   5    103     92     20     44
   271   5     10     92     20     44
   272   6    110     92     20     44
   273  16    267     21     41     17
   274  17    267     21     41    307
   275   5      7    267     21     41
   276   5    280    267     21     41
   277   6    283    267     21     41
   278   5    273    267     21     41
   279  16      4     22     42     18
   280  17      4     22     42     88
   281  16    133     23     43     19
   282  17    133     23     43    173
   283   5      5    133     23     43
   284   5    146    133     23     43
   285   6    149    133     23     43
   286   5    143    133     23     43
   287  16      2     24     44     20
   288  17      2     24     44    130
   289  10    794    805     25      5
   290  14    825    805     25      5
   291   9    794    805     25     29
   292  15    825    805     25     29
   293  10    397    410     26      6
   294  14    430    410     26      6
   295   9    397    410     26     30
   296  15    430    410     26     30
   297  10    400    411     27      7
   298  14    431    411     27      7
   299   9    400    411     27     31
   300  15    431    411     27     31
   301  10    795    808     28      8
   302  14    828    808     28      8
   303   9    795    808     28     32
   304  15    828    808     28     32
   305  18     17     41    307    283
   306  18     17     41    307    287
   307  18     21     41    307    283
   308  18     21     41    307    287
   309  18     18     42     88     64
   310  18     18     42     88     68
   311  18     22     42     88     64
   312  18     22     42     88     68
   313  18     19     43    173    149
   314  18     19     43    173    153
   315  18     23     43    173    149
   316  18     23     43    173    153
   317  18     20     44    130    106
   318  18     20     44    130    110
   319  18     24     44    130    106
   320  18     24     44    130    110
   321   1     58     45    313    333
   322   2     58     45    313   1109
   323   3     61     45    313    333
   324   4     61     45    313   1109
   325   1     55     45    313    333
   326   2     55     45    313   1109
   327   3    331     45    313    333
   328   4    331     45    313   1109
   329   1    313     45     58    862
   330   1    313     45     58     78
   331   3     61     45     58    862
   332   3     61     45     58     78
   333   1     55     45     58    862
   334   1     55     45     58     78
   335   3    331     45     58    862
   336   3    331     45     58     78
   337   5    313     45     61     85
   338   5     58     45     61     85
   339   5     55     45     61     85
   340   6    331     45     61     85
   341   1    313     45     55     79
   342   2    313     45     55    843
   343   1     58     45     55     79
   344   2     58     45     55    843
   345   3     61     45     55     79
   346   4     61     45     55    843
   347   3    331     45     55     79
   348   4    331     45     55    843
   349   5    313     45    331    351
   350   5     58     45    331    351
   351   6     61     45    331    351
   352   5     55     45    331    351
   353   1     57     46     50     70
   354   2     57     46     50    450
   355   3     18     46     50     70
   356   4     18     46     50    450
   357   1     12     46     50     70
   358   2     12     46     50    450
   359   3     68     46     50     70
   360   4     68     46     50    450
   361   1     50     46     57    465
   362   1     50     46     57     77
   363   3     18     46     57    465
   364   3     18     46     57     77
   365   1     12     46     57    465
   366   1     12     46     57     77
   367   3     68     46     57    465
   368   3     68     46     57     77
   369   5     50     46     68     88
   370   5     57     46     68     88
   371   6     18     46     68     88
   372   5     12     46     68     88
   373   1     60     47    183    203
   374   2     60     47    183    583
   375   3     63     47    183    203
   376   4     63     47    183    583
   377   1     53     47    183    203
   378   2     53     47    183    583
   379   3    197     47    183    203
   380   4    197     47    183    583
   381   1    183     47     60    468
   382   1    183     47     60     80
   383   3     63     47     60    468
   384   3     63     47     60     80
   385   1     53     47     60    468
   386   1     53     47     60     80
   387   3    197     47     60    468
   388   3    197     47     60     80
   389   5    183     47     63     87
   390   5     60     47     63     87
   391   5     53     47     63     87
   392   6    197     47     63     87
   393   1    183     47     53     77
   394   2    183     47     53    445
   395   1     60     47     53     77
   396   2     60     47     53    445
   397   3     63     47     53     77
   398   4     63     47     53    445
   399   3    197     47     53     77
   400   4    197     47     53    445
   401   5    183     47    197    217
   402   5     60     47    197    217
   403   6     63     47    197    217
   404   5     53     47    197    217
   405   1     59     48     52     72
   406   2     59     48     52    848
   407   3    108     48     52     72
   408   4    108     48     52    848
   409   1     98     48     52     72
   410   2     98     48     52    848
   411   3     66     48     52     72
   412   4     66     48     52    848
   413   1     52     48     59    863
   414   1     52     48     59     79
   415   3    108     48     59    863
   416   3    108     48     59     79
   417   1     98     48     59    863
   418   1     98     48     59     79
   419   3     66     48     59    863
   420   3     66     48     59     79
   421   5     52     48    108    132
   422   5     59     48    108    132
   423   5     98     48    108    132
   424   6     66     48    108    132
   425   1     52     48     98    122
   426   2     52     48     98    886
   427   1     59     48     98    122
   428   2     59     48     98    886
   429   3    108     48     98    122
   430   4    108     48     98    886
   431   3     66     48     98    122
   432   4     66     48     98    886
   433   5     52     48     66     86
   434   5     59     48     66     86
   435   6    108     48     66     86
   436   5     98     48     66     86
   437   7    845     49     69     73
   438   8    845     49     69    849
   439   9    177     49     69     73
   440  10    177     49     69    849
   441  11    839    845     49     69
   442  12     69     49    845    869
   443  13    177     49    845    839
   444  11    177     49    845    869
   445   1    190    177     49     69
   446   3    193    177     49     69
   447   1    187    177     49     69
   448   3     67    177     49     69
   449   2    190    177     49    845
   450   4    193    177     49    845
   451   2    187    177     49    845
   452   4     67    177     49    845
   453   9     46     50     70     74
   454  10     46     50     70    454
   455   7    450     50     70     74
   456   8    450     50     70    454
   457  13     46     50    450    400
   458  11     46     50    450    474
   459  11    400    450     50     70
   460  12     70     50    450    474
   461   7    451     51     71     75
   462   8    451     51     71    455
   463   9    311     51     71     75
   464  10    311     51     71    455
   465  11    441    451     51     71
   466  12     71     51    451    475
   467  13    311     51    451    441
   468  11    311     51    451    475
   469   1    324    311     51     71
   470   3    327    311     51     71
   471   1    317    311     51     71
   472   3     65    311     51     71
   473   2    324    311     51    451
   474   4    327    311     51    451
   475   2    317    311     51    451
   476   4     65    311     51    451
   477   9     48     52     72     76
   478  10     48     52     72    852
   479   7    848     52     72     76
   480   8    848     52     72    852
   481  11     48     52    848    872
   482  13     48     52    848    882
   483  12     72     52    848    872
   484  11    882    848     52     72
   485  10     47     53     77     57
   486   9     47     53     77     81
   487   8    445     53     77     57
   488   7    445     53     77     81
   489  11     47     53    445    465
   490  13     47     53    445    573
   491  12     77     53    445    465
   492  11    573    445     53     77
   493  10      4     54     78     58
   494   9      4     54     78     82
   495   8    842     54     78     58
   496   7    842     54     78     82
   497  13      4     54    842    838
   498  11      4     54    842    862
   499  11    838    842     54     78
   500  12     78     54    842    862
   501  10     45     55     79     59
   502   9     45     55     79     83
   503   8    843     55     79     59
   504   7    843     55     79     83
   505  11     45     55    843    863
   506  13     45     55    843   1103
   507  12     79     55    843    863
   508  11   1103    843     55     79
   509  10     90     56     80     60
   510   9     90     56     80     84
   511   8    448     56     80     60
   512   7    448     56     80     84
   513   1     94     90     56     80
   514   1    101     90     56     80
   515   3     62     90     56     80
   516   3    112     90     56     80
   517   2     94     90     56    448
   518   2    101     90     56    448
   519   4     62     90     56    448
   520   4    112     90     56    448
   521  11    444    448     56     80
   522  12     80     56    448    468
   523  13     90     56    448    444
   524  11     90     56    448    468
   525  10     46     57    465    445
   526   9     46     57    465    469
   527  14     77     57    465    445
   528  15     77     57    465    469
   529  10     46     57     77     53
   530   9     46     57     77     81
   531  14    465     57     77     53
   532  15    465     57     77     81
   533  10     45     58    862    842
   534   9     45     58    862    866
   535  14     78     58    862    842
   536  15     78     58    862    866
   537  10     45     58     78     54
   538   9     45     58     78     82
   539  14    862     58     78     54
   540  15    862     58     78     82
   541  10     48     59    863    843
   542   9     48     59    863    867
   543  14     79     59    863    843
   544  15     79     59    863    867
   545  10     48     59     79     55
   546   9     48     59     79     83
   547  14    863     59     79     55
   548  15    863     59     79     83
   549  10     47     60    468    448
   550   9     47     60    468    472
   551  14     80     60    468    448
   552  15     80     60    468    472
   553  10     47     60     80     56
   554   9     47     60     80     84
   555  14    468     60     80     56
   556  15    468     60     80     84
   557  16     45     61     85     65
   558  17     45     61     85    351
   559  16     90     62     86     66
   560  17     90     62     86    132
   561   5     94     90     62     86
   562   5    101     90     62     86
   563   5     56     90     62     86
   564   6    112     90     62     86
   565  16     47     63     87     67
   566  17     47     63     87    217
   567  17      4     64     88     42
   568  16      4     64     88     68
   569  16    311     65     85     61
   570  17    311     65     85    351
   571   5     51    311     65     85
   572   5    324    311     65     85
   573   6    327    311     65     85
   574   5    317    311     65     85
   575  16     48     66     86     62
   576  17     48     66     86    132
   577  16    177     67     87     63
   578  17    177     67     87    217
   579   5     49    177     67     87
   580   5    190    177     67     87
   581   6    193    177     67     87
   582   5    187    177     67     87
   583  17     46     68     88     42
   584  16     46     68     88     64
   585  10    838    849     69     49
   586  14    869    849     69     49
   587   9    838    849     69     73
   588  15    869    849     69     73
   589  10    441    454     70     50
   590  14    474    454     70     50
   591   9    441    454     70     74
   592  15    474    454     70     74
   593  10    444    455     71     51
   594  14    475    455     71     51
   595   9    444    455     71     75
   596  15    475    455     71     75
   597  10    839    852     72     52
   598  14    872    852     72     52
   599   9    839    852     72     76
   600  15    872    852     72     76
   601  18     61     85    351    327
   602  18     61     85    351    331
   603  18     65     85    351    327
   604  18     65     85    351    331
   605  18     62     86    132    108
   606  18     62     86    132    112
   607  18     66     86    132    108
   608  18     66     86    132    112
   609  18     63     87    217    193
   610  18     63     87    217    197
   611  18     67     87    217    193
   612  18     67     87    217    197
   613   1    102     89    357    377
   614   2    102     89    357   1153
   615   3    105     89    357    377
   616   4    105     89    357   1153
   617   1     99     89    357    377
   618   2     99     89    357   1153
   619   3    375     89    357    377
   620   4    375     89    357   1153
   621   1    357     89    102    906
   622   1    357     89    102    122
   623   3    105     89    102    906
   624   3    105     89    102    122
   625   1     99     89    102    906
   626   1     99     89    102    122
   627   3    375     89    102    906
   628   3    375     89    102    122
   629   5    357     89    105    129
   630   5    102     89    105    129
   631   5     99     89    105    129
   632   6    375     89    105    129
   633   1    357     89     99    123
   634   2    357     89     99    887
   635   1    102     89     99    123
   636   2    102     89     99    887
   637   3    105     89     99    123
   638   4    105     89     99    887
   639   3    375     89     99    123
   640   4    375     89     99    887
   641   5    357     89    375    395
   642   5    102     89    375    395
   643   6    105     89    375    395
   644   5     99     89    375    395
   645   1    101     90     94    114
   646   2    101     90     94    494
   647   3     62     90     94    114
   648   4     62     90     94    494
   649   1     56     90     94    114
   650   2     56     90     94    494
   651   3    112     90     94    114
   652   4    112     90     94    494
   653   1     94     90    101    509
   654   1     94     90    101    121
   655   3     62     90    101    509
   656   3     62     90    101    121
   657   1     56     90    101    509
   658   1     56     90    101    121
   659   3    112     90    101    509
   660   3    112     90    101    121
   661   5     94     90    112    132
   662   5    101     90    112    132
   663   6     62     90    112    132
   664   5     56     90    112    132
   665   1    104     91    227    247
   666   2    104     91    227    627
   667   3    107     91    227    247
   668   4    107     91    227    627
   669   1     97     91    227    247
   670   2     97     91    227    627
   671   3    241     91    227    247
   672   4    241     91    227    627
   673   1    227     91    104    512
   674   1    227     91    104    124
   675   3    107     91    104    512
   676   3    107     91    104    124
   677   1     97     91    104    512
   678   1     97     91    104    124
   679   3    241     91    104    512
   680   3    241     91    104    124
   681   5    227     91    107    131
   682   5    104     91    107    131
   683   5     97     91    107    131
   684   6    241     91    107    131
   685   1    227     91     97    121
   686   2    227     91     97    489
   687   1    104     91     97    121
   688   2    104     91     97    489
   689   3    107     91     97    121
   690   4    107     91     97    489
   691   3    241     91     97    121
   692   4    241     91     97    489
   693   5    227     91    241    261
   694   5    104     91    241    261
   695   6    107     91    241    261
   696   5     97     91    241    261
   697   1    103     92     96    116
   698   2    103     92     96    892
   699   3     20     92     96    116
   700   4     20     92     96    892
   701   1     10     92     96    116
   702   2     10     92     96    892
   703   3    110     92     96    116
   704   4    110     92     96    892
   705   1     96     92    103    907
   706   1     96     92    103    123
   707   3     20     92    103    907
   708   3     20     92    103    123
   709   1     10     92    103    907
   710   1     10     92    103    123
   711   3    110     92    103    907
   712   3    110     92    103    123
   713   5     96     92    110    130
   714   5    103     92    110    130
   715   6     20     92    110    130
   716   5     10     92    110    130
   717   7    889     93    113    117
   718   8    889     93    113    893
   719   9    221     93    113    117
   720  10    221     93    113    893
   721  11    883    889     93    113
   722  12    113     93    889    913
   723  13    221     93    889    883
   724  11    221     93    889    913
   725   1    234    221     93    113
   726   3    237    221     93    113
   727   1    231    221     93    113
   728   3    111    221     93    113
   729   2    234    221     93    889
   730   4    237    221     93    889
   731   2    231    221     93    889
   732   4    111    221     93    889
   733   9     90     94    114    118
   734  10     90     94    114    498
   735   7    494     94    114    118
   736   8    494     94    114    498
   737  13     90     94    494    444
   738  11     90     94    494    518
   739  11    444    494     94    114
   740  12    114     94    494    518
   741   7    495     95    115    119
   742   8    495     95    115    499
   743   9    355     95    115    119
   744  10    355     95    115    499
   745  11    485    495     95    115
   746  12    115     95    495    519
   747  13    355     95    495    485
   748  11    355     95    495    519
   749   1    368    355     95    115
   750   3    371    355     95    115
   751   1    361    355     95    115
   752   3    109    355     95    115
   753   2    368    355     95    495
   754   4    371    355     95    495
   755   2    361    355     95    495
   756   4    109    355     95    495
   757   9     92     96    116    120
   758  10     92     96    116    896
   759   7    892     96    116    120
   760   8    892     96    116    896
   761  13     92     96    892    794
   762  11     92     96    892    916
   763  11    794    892     96    116
   764  12    116     96    892    916
   765  10     91     97    121    101
   766   9     91     97    121    125
   767   8    489     97    121    101
   768   7    489     97    121    125
   769  11     91     97    489    509
   770  13     91     97    489    617
   771  12    121     97    489    509
   772  11    617    489     97    121
   773  10     48     98    122    102
   774   9     48     98    122    126
   775   8    886     98    122    102
   776   7    886     98    122    126
   777  13     48     98    886    882
   778  11     48     98    886    906
   779  11    882    886     98    122
   780  12    122     98    886    906
   781  10     89     99    123    103
   782   9     89     99    123    127
   783   8    887     99    123    103
   784   7    887     99    123    127
   785  11     89     99    887    907
   786  13     89     99    887   1147
   787  12    123     99    887    907
   788  11   1147    887     99    123
   789  10      2    100    124    104
   790   9      2    100    124    128
   791   8    492    100    124    104
   792   7    492    100    124    128
   793  13      2    100    492    488
   794  11      2    100    492    512
   795  11    488    492    100    124
   796  12    124    100    492    512
   797  10     90    101    509    489
   798   9     90    101    509    513
   799  14    121    101    509    489
   800  15    121    101    509    513
   801  10     90    101    121     97
   802   9     90    101    121    125
   803  14    509    101    121     97
   804  15    509    101    121    125
   805  10     89    102    906    886
   806   9     89    102    906    910
   807  14    122    102    906    886
   808  15    122    102    906    910
   809  10     89    102    122     98
   810   9     89    102    122    126
   811  14    906    102    122     98
   812  15    906    102    122    126
   813  10     92    103    907    887
   814   9     92    103    907    911
   815  14    123    103    907    887
   816  15    123    103    907    911
   817  10     92    103    123     99
   818   9     92    103    123    127
   819  14    907    103    123     99
   820  15    907    103    123    127
   821  10     91    104    512    492
   822   9     91    104    512    516
   823  14    124    104    512    492
   824  15    124    104    512    516
   825  10     91    104    124    100
   826   9     91    104    124    128
   827  14    512    104    124    100
   828  15    512    104    124    128
   829  16     89    105    129    109
   830  17     89    105    129    395
   831  16      2    106    130    110
   832  17      2    106    130     44
   833  16     91    107    131    111
   834  17     91    107    131    261
   835  17     48    108    132     86
   836  16     48    108    132    112
   837  16    355    109    129    105
   838  17    355    109    129    395
   839   5     95    355    109    129
   840   5    368    355    109    129
   841   6    371    355    109    129
   842   5    361    355    109    129
   843  16     92    110    130    106
   844  17     92    110    130     44
   845  16    221    111    131    107
   846  17    221    111    131    261
   847   5     93    221    111    131
   848   5    234    221    111    131
   849   6    237    221    111    131
   850   5    231    221    111    131
   851  17     90    112    132     86
   852  16     90    112    132    108
   853  10    882    893    113     93
   854  14    913    893    113     93
   855   9    882    893    113    117
   856  15    913    893    113    117
   857  10    485    498    114     94
   858  14    518    498    114     94
   859   9    485    498    114    118
   860  15    518    498    114    118
   861  10    488    499    115     95
   862  14    519    499    115     95
   863   9    488    499    115    119
   864  15    519    499    115    119
   865  10    883    896    116     96
   866  14    916    896    116     96
   867   9    883    896    116    120
   868  15    916    896    116    120
   869  18    105    129    395    371
   870  18    105    129    395    375
   871  18    109    129    395    371
   872  18    109    129    395    375
   873  18    107    131    261    237
   874  18    107    131    261    241
   875  18    111    131    261    237
   876  18    111    131    261    241
   877   1      5    133    146    950
   878   1      5    133    146    166
   879   3    149    133    146    950
   880   3    149    133    146    166
   881   1    143    133    146    950
   882   1    143    133    146    166
   883   3     23    133    146    950
   884   3     23    133    146    166
   885   5      5    133    149    173
   886   5    146    133    149    173
   887   5    143    133    149    173
   888   6     23    133    149    173
   889   1      5    133    143    167
   890   2      5    133    143    931
   891   1    146    133    143    167
   892   2    146    133    143    931
   893   3    149    133    143    167
   894   4    149    133    143    931
   895   3     23    133    143    167
   896   4     23    133    143    931
   897   1    145    134    138    158
   898   2    145    134    138    538
   899   3    238    134    138    158
   900   4    238    134    138    538
   901   1    232    134    138    158
   902   2    232    134    138    538
   903   3    156    134    138    158
   904   4    156    134    138    538
   905   1    138    134    145    553
   906   1    138    134    145    165
   907   3    238    134    145    553
   908   3    238    134    145    165
   909   1    232    134    145    553
   910   1    232    134    145    165
   911   3    156    134    145    553
   912   3    156    134    145    165
   913   5    138    134    238    262
   914   5    145    134    238    262
   915   5    232    134    238    262
   916   6    156    134    238    262
   917   1    138    134    232    256
   918   2    138    134    232    624
   919   1    145    134    232    256
   920   2    145    134    232    624
   921   3    238    134    232    256
   922   4    238    134    232    624
   923   3    156    134    232    256
   924   4    156    134    232    624
   925   5    138    134    156    176
   926   5    145    134    156    176
   927   6    238    134    156    176
   928   5    232    134    156    176
   929   1    148    135    271    291
   930   2    148    135    271    671
   931   3    151    135    271    291
   932   4    151    135    271    671
   933   1    141    135    271    291
   934   2    141    135    271    671
   935   3    285    135    271    291
   936   4    285    135    271    671
   937   1    271    135    148    556
   938   1    271    135    148    168
   939   3    151    135    148    556
   940   3    151    135    148    168
   941   1    141    135    148    556
   942   1    141    135    148    168
   943   3    285    135    148    556
   944   3    285    135    148    168
   945   5    271    135    151    175
   946   5    148    135    151    175
   947   5    141    135    151    175
   948   6    285    135    151    175
   949   1    271    135    141    165
   950   2    271    135    141    533
   951   1    148    135    141    165
   952   2    148    135    141    533
   953   3    151    135    141    165
   954   4    151    135    141    533
   955   3    285    135    141    165
   956   4    285    135    141    533
   957   5    271    135    285    305
   958   5    148    135    285    305
   959   6    151    135    285    305
   960   5    141    135    285    305
   961   1    147    136    140    160
   962   2    147    136    140    936
   963   3    196    136    140    160
   964   4    196    136    140    936
   965   1    186    136    140    160
   966   2    186    136    140    936
   967   3    154    136    140    160
   968   4    154    136    140    936
   969   1    140    136    147    951
   970   1    140    136    147    167
   971   3    196    136    147    951
   972   3    196    136    147    167
   973   1    186    136    147    951
   974   1    186    136    147    167
   975   3    154    136    147    951
   976   3    154    136    147    167
   977   5    140    136    196    220
   978   5    147    136    196    220
   979   5    186    136    196    220
   980   6    154    136    196    220
   981   1    140    136    186    210
   982   2    140    136    186    974
   983   1    147    136    186    210
   984   2    147    136    186    974
   985   3    196    136    186    210
   986   4    196    136    186    974
   987   3    154    136    186    210
   988   4    154    136    186    974
   989   5    140    136    154    174
   990   5    147    136    154    174
   991   6    196    136    154    174
   992   5    186    136    154    174
   993   7    933    137    157    161
   994   8    933    137    157    937
   995   9    265    137    157    161
   996  10    265    137    157    937
   997  11    927    933    137    157
   998  12    157    137    933    957
   999  13    265    137    933    927
  1000  11    265    137    933    957
  1001   1    278    265    137    157
  1002   3    281    265    137    157
  1003   1    275    265    137    157
  1004   3    155    265    137    157
  1005   2    278    265    137    933
  1006   4    281    265    137    933
  1007   2    275    265    137    933
  1008   4    155    265    137    933
  1009   9    134    138    158    162
  1010  10    134    138    158    542
  1011   7    538    138    158    162
  1012   8    538    138    158    542
  1013  11    134    138    538    562
  1014  13    134    138    538    620
  1015  12    158    138    538    562
  1016  11    620    538    138    158
  1017   9      3    139    159    163
  1018  10      3    139    159    543
  1019   7    539    139    159    163
  1020   8    539    139    159    543
  1021  13      3    139    539    529
  1022  11      3    139    539    563
  1023  11    529    539    139    159
  1024  12    159    139    539    563
  1025   9    136    140    160    164
  1026  10    136    140    160    940
  1027   7    936    140    160    164
  1028   8    936    140    160    940
  1029  11    136    140    936    960
  1030  13    136    140    936    970
  1031  12    160    140    936    960
  1032  11    970    936    140    160
  1033  10    135    141    165    145
  1034   9    135    141    165    169
  1035   8    533    141    165    145
  1036   7    533    141    165    169
  1037  11    135    141    533    553
  1038  13    135    141    533    661
  1039  12    165    141    533    553
  1040  11    661    533    141    165
  1041  10    224    142    166    146
  1042   9    224    142    166    170
  1043   8    930    142    166    146
  1044   7    930    142    166    170
  1045   1    228    224    142    166
  1046   1    235    224    142    166
  1047   3    152    224    142    166
  1048   3    242    224    142    166
  1049   2    228    224    142    930
  1050   2    235    224    142    930
  1051   4    152    224    142    930
  1052   4    242    224    142    930
  1053  11    926    930    142    166
  1054  12    166    142    930    950
  1055  13    224    142    930    926
  1056  11    224    142    930    950
  1057  10    133    143    167    147
  1058   9    133    143    167    171
  1059   8    931    143    167    147
  1060   7    931    143    167    171
  1061  13    133    143    931    795
  1062  11    133    143    931    951
  1063  11    795    931    143    167
  1064  12    167    143    931    951
  1065  10    178    144    168    148
  1066   9    178    144    168    172
  1067   8    536    144    168    148
  1068   7    536    144    168    172
  1069   1    182    178    144    168
  1070   1    189    178    144    168
  1071   3    150    178    144    168
  1072   3    200    178    144    168
  1073   2    182    178    144    536
  1074   2    189    178    144    536
  1075   4    150    178    144    536
  1076   4    200    178    144    536
  1077  11    532    536    144    168
  1078  12    168    144    536    556
  1079  13    178    144    536    532
  1080  11    178    144    536    556
  1081  10    134    145    553    533
  1082   9    134    145    553    557
  1083  14    165    145    553    533
  1084  15    165    145    553    557
  1085  10    134    145    165    141
  1086   9    134    145    165    169
  1087  14    553    145    165    141
  1088  15    553    145    165    169
  1089  10    133    146    950    930
  1090   9    133    146    950    954
  1091  14    166    146    950    930
  1092  15    166    146    950    954
  1093  10    133    146    166    142
  1094   9    133    146    166    170
  1095  14    950    146    166    142
  1096  15    950    146    166    170
  1097  10    136    147    951    931
  1098   9    136    147    951    955
  1099  14    167    147    951    931
  1100  15    167    147    951    955
  1101  10    136    147    167    143
  1102   9    136    147    167    171
  1103  14    951    147    167    143
  1104  15    951    147    167    171
  1105  10    135    148    556    536
  1106   9    135    148    556    560
  1107  14    168    148    556    536
  1108  15    168    148    556    560
  1109  10    135    148    168    144
  1110   9    135    148    168    172
  1111  14    556    148    168    144
  1112  15    556    148    168    172
  1113  16    133    149    173    153
  1114  17    133    149    173     43
  1115  16    178    150    174    154
  1116  17    178    150    174    220
  1117   5    182    178    150    174
  1118   5    189    178    150    174
  1119   5    144    178    150    174
  1120   6    200    178    150    174
  1121  16    135    151    175    155
  1122  17    135    151    175    305
  1123  16    224    152    176    156
  1124  17    224    152    176    262
  1125   5    228    224    152    176
  1126   5    235    224    152    176
  1127   5    142    224    152    176
  1128   6    242    224    152    176
  1129  16      3    153    173    149
  1130  17      3    153    173     43
  1131  16    136    154    174    150
  1132  17    136    154    174    220
  1133  16    265    155    175    151
  1134  17    265    155    175    305
  1135   5    137    265    155    175
  1136   5    278    265    155    175
  1137   6    281    265    155    175
  1138   5    275    265    155    175
  1139  16    134    156    176    152
  1140  17    134    156    176    262
  1141  10    926    937    157    137
  1142  14    957    937    157    137
  1143   9    926    937    157    161
  1144  15    957    937    157    161
  1145  10    529    542    158    138
  1146  14    562    542    158    138
  1147   9    529    542    158    162
  1148  15    562    542    158    162
  1149  10    532    543    159    139
  1150  14    563    543    159    139
  1151   9    532    543    159    163
  1152  15    563    543    159    163
  1153  10    927    940    160    140
  1154  14    960    940    160    140
  1155   9    927    940    160    164
  1156  15    960    940    160    164
  1157  18    150    174    220    196
  1158  18    150    174    220    200
  1159  18    154    174    220    196
  1160  18    154    174    220    200
  1161  18    151    175    305    281
  1162  18    151    175    305    285
  1163  18    155    175    305    281
  1164  18    155    175    305    285
  1165  18    152    176    262    238
  1166  18    152    176    262    242
  1167  18    156    176    262    238
  1168  18    156    176    262    242
  1169   1     49    177    190    994
  1170   1     49    177    190    210
  1171   3    193    177    190    994
  1172   3    193    177    190    210
  1173   1    187    177    190    994
  1174   1    187    177    190    210
  1175   3     67    177    190    994
  1176   3     67    177    190    210
  1177   5     49    177    193    217
  1178   5    190    177    193    217
  1179   5    187    177    193    217
  1180   6     67    177    193    217
  1181   1     49    177    187    211
  1182   2     49    177    187    975
  1183   1    190    177    187    211
  1184   2    190    177    187    975
  1185   3    193    177    187    211
  1186   4    193    177    187    975
  1187   3     67    177    187    211
  1188   4     67    177    187    975
  1189   1    189    178    182    202
  1190   2    189    178    182    582
  1191   3    150    178    182    202
  1192   4    150    178    182    582
  1193   1    144    178    182    202
  1194   2    144    178    182    582
  1195   3    200    178    182    202
  1196   4    200    178    182    582
  1197   1    182    178    189    597
  1198   1    182    178    189    209
  1199   3    150    178    189    597
  1200   3    150    178    189    209
  1201   1    144    178    189    597
  1202   1    144    178    189    209
  1203   3    200    178    189    597
  1204   3    200    178    189    209
  1205   5    182    178    200    220
  1206   5    189    178    200    220
  1207   6    150    178    200    220
  1208   5    144    178    200    220
  1209   1    192    179    315    335
  1210   2    192    179    315    715
  1211   3    195    179    315    335
  1212   4    195    179    315    715
  1213   1    185    179    315    335
  1214   2    185    179    315    715
  1215   3    329    179    315    335
  1216   4    329    179    315    715
  1217   1    315    179    192    600
  1218   1    315    179    192    212
  1219   3    195    179    192    600
  1220   3    195    179    192    212
  1221   1    185    179    192    600
  1222   1    185    179    192    212
  1223   3    329    179    192    600
  1224   3    329    179    192    212
  1225   5    315    179    195    219
  1226   5    192    179    195    219
  1227   5    185    179    195    219
  1228   6    329    179    195    219
  1229   1    315    179    185    209
  1230   2    315    179    185    577
  1231   1    192    179    185    209
  1232   2    192    179    185    577
  1233   3    195    179    185    209
  1234   4    195    179    185    577
  1235   3    329    179    185    209
  1236   4    329    179    185    577
  1237   5    315    179    329    349
  1238   5    192    179    329    349
  1239   6    195    179    329    349
  1240   5    185    179    329    349
  1241   1    191    180    184    204
  1242   2    191    180    184    980
  1243   3    240    180    184    204
  1244   4    240    180    184    980
  1245   1    230    180    184    204
  1246   2    230    180    184    980
  1247   3    198    180    184    204
  1248   4    198    180    184    980
  1249   1    184    180    191    995
  1250   1    184    180    191    211
  1251   3    240    180    191    995
  1252   3    240    180    191    211
  1253   1    230    180    191    995
  1254   1    230    180    191    211
  1255   3    198    180    191    995
  1256   3    198    180    191    211
  1257   5    184    180    240    264
  1258   5    191    180    240    264
  1259   5    230    180    240    264
  1260   6    198    180    240    264
  1261   1    184    180    230    254
  1262   2    184    180    230   1018
  1263   1    191    180    230    254
  1264   2    191    180    230   1018
  1265   3    240    180    230    254
  1266   4    240    180    230   1018
  1267   3    198    180    230    254
  1268   4    198    180    230   1018
  1269   5    184    180    198    218
  1270   5    191    180    198    218
  1271   6    240    180    198    218
  1272   5    230    180    198    218
  1273   7    977    181    201    205
  1274   8    977    181    201    981
  1275   9    309    181    201    205
  1276  10    309    181    201    981
  1277  11    971    977    181    201
  1278  12    201    181    977   1001
  1279  13    309    181    977    971
  1280  11    309    181    977   1001
  1281   1    322    309    181    201
  1282   3    325    309    181    201
  1283   1    319    309    181    201
  1284   3    199    309    181    201
  1285   2    322    309    181    977
  1286   4    325    309    181    977
  1287   2    319    309    181    977
  1288   4    199    309    181    977
  1289   9    178    182    202    206
  1290  10    178    182    202    586
  1291   7    582    182    202    206
  1292   8    582    182    202    586
  1293  13    178    182    582    532
  1294  11    178    182    582    606
  1295  11    532    582    182    202
  1296  12    202    182    582    606
  1297   9     47    183    203    207
  1298  10     47    183    203    587
  1299   7    583    183    203    207
  1300   8    583    183    203    587
  1301  13     47    183    583    573
  1302  11     47    183    583    607
  1303  11    573    583    183    203
  1304  12    203    183    583    607
  1305   9    180    184    204    208
  1306  10    180    184    204    984
  1307   7    980    184    204    208
  1308   8    980    184    204    984
  1309  11    180    184    980   1004
  1310  13    180    184    980   1014
  1311  12    204    184    980   1004
  1312  11   1014    980    184    204
  1313  10    179    185    209    189
  1314   9    179    185    209    213
  1315   8    577    185    209    189
  1316   7    577    185    209    213
  1317  11    179    185    577    597
  1318  13    179    185    577    705
  1319  12    209    185    577    597
  1320  11    705    577    185    209
  1321  10    136    186    210    190
  1322   9    136    186    210    214
  1323   8    974    186    210    190
  1324   7    974    186    210    214
  1325  13    136    186    974    970
  1326  11    136    186    974    994
  1327  11    970    974    186    210
  1328  12    210    186    974    994
  1329  10    177    187    211    191
  1330   9    177    187    211    215
  1331   8    975    187    211    191
  1332   7    975    187    211    215
  1333  13    177    187    975    839
  1334  11    177    187    975    995
  1335  11    839    975    187    211
  1336  12    211    187    975    995
  1337  10    222    188    212    192
  1338   9    222    188    212    216
  1339   8    580    188    212    192
  1340   7    580    188    212    216
  1341   1    226    222    188    212
  1342   1    233    222    188    212
  1343   3    194    222    188    212
  1344   3    244    222    188    212
  1345   2    226    222    188    580
  1346   2    233    222    188    580
  1347   4    194    222    188    580
  1348   4    244    222    188    580
  1349  11    576    580    188    212
  1350  12    212    188    580    600
  1351  13    222    188    580    576
  1352  11    222    188    580    600
  1353  10    178    189    597    577
  1354   9    178    189    597    601
  1355  14    209    189    597    577
  1356  15    209    189    597    601
  1357  10    178    189    209    185
  1358   9    178    189    209    213
  1359  14    597    189    209    185
  1360  15    597    189    209    213
  1361  10    177    190    994    974
  1362   9    177    190    994    998
  1363  14    210    190    994    974
  1364  15    210    190    994    998
  1365  10    177    190    210    186
  1366   9    177    190    210    214
  1367  14    994    190    210    186
  1368  15    994    190    210    214
  1369  10    180    191    995    975
  1370   9    180    191    995    999
  1371  14    211    191    995    975
  1372  15    211    191    995    999
  1373  10    180    191    211    187
  1374   9    180    191    211    215
  1375  14    995    191    211    187
  1376  15    995    191    211    215
  1377  10    179    192    600    580
  1378   9    179    192    600    604
  1379  14    212    192    600    580
  1380  15    212    192    600    604
  1381  10    179    192    212    188
  1382   9    179    192    212    216
  1383  14    600    192    212    188
  1384  15    600    192    212    216
  1385  16    177    193    217    197
  1386  17    177    193    217     87
  1387  16    222    194    218    198
  1388  17    222    194    218    264
  1389   5    226    222    194    218
  1390   5    233    222    194    218
  1391   5    188    222    194    218
  1392   6    244    222    194    218
  1393  16    179    195    219    199
  1394  17    179    195    219    349
  1395  17    136    196    220    174
  1396  16    136    196    220    200
  1397  16     47    197    217    193
  1398  17     47    197    217     87
  1399  16    180    198    218    194
  1400  17    180    198    218    264
  1401  16    309    199    219    195
  1402  17    309    199    219    349
  1403   5    181    309    199    219
  1404   5    322    309    199    219
  1405   6    325    309    199    219
  1406   5    319    309    199    219
  1407  17    178    200    220    174
  1408  16    178    200    220    196
  1409  10    970    981    201    181
  1410  14   1001    981    201    181
  1411   9    970    981    201    205
  1412  15   1001    981    201    205
  1413  10    573    586    202    182
  1414  14    606    586    202    182
  1415   9    573    586    202    206
  1416  15    606    586    202    206
  1417  10    576    587    203    183
  1418  14    607    587    203    183
  1419   9    576    587    203    207
  1420  15    607    587    203    207
  1421  10    971    984    204    184
  1422  14   1004    984    204    184
  1423   9    971    984    204    208
  1424  15   1004    984    204    208
  1425  18    194    218    264    240
  1426  18    194    218    264    244
  1427  18    198    218    264    240
  1428  18    198    218    264    244
  1429  18    195    219    349    325
  1430  18    195    219    349    329
  1431  18    199    219    349    325
  1432  18    199    219    349    329
  1433   1     93    221    234   1038
  1434   1     93    221    234    254
  1435   3    237    221    234   1038
  1436   3    237    221    234    254
  1437   1    231    221    234   1038
  1438   1    231    221    234    254
  1439   3    111    221    234   1038
  1440   3    111    221    234    254
  1441   5     93    221    237    261
  1442   5    234    221    237    261
  1443   5    231    221    237    261
  1444   6    111    221    237    261
  1445   1     93    221    231    255
  1446   2     93    221    231   1019
  1447   1    234    221    231    255
  1448   2    234    221    231   1019
  1449   3    237    221    231    255
  1450   4    237    221    231   1019
  1451   3    111    221    231    255
  1452   4    111    221    231   1019
  1453   1    233    222    226    246
  1454   2    233    222    226    626
  1455   3    194    222    226    246
  1456   4    194    222    226    626
  1457   1    188    222    226    246
  1458   2    188    222    226    626
  1459   3    244    222    226    246
  1460   4    244    222    226    626
  1461   1    226    222    233    641
  1462   1    226    222    233    253
  1463   3    194    222    233    641
  1464   3    194    222    233    253
  1465   1    188    222    233    641
  1466   1    188    222    233    253
  1467   3    244    222    233    641
  1468   3    244    222    233    253
  1469   5    226    222    244    264
  1470   5    233    222    244    264
  1471   6    194    222    244    264
  1472   5    188    222    244    264
  1473   1    236    223    359    379
  1474   2    236    223    359    759
  1475   3    239    223    359    379
  1476   4    239    223    359    759
  1477   1    229    223    359    379
  1478   2    229    223    359    759
  1479   3    373    223    359    379
  1480   4    373    223    359    759
  1481   1    359    223    236    644
  1482   1    359    223    236    256
  1483   3    239    223    236    644
  1484   3    239    223    236    256
  1485   1    229    223    236    644
  1486   1    229    223    236    256
  1487   3    373    223    236    644
  1488   3    373    223    236    256
  1489   5    359    223    239    263
  1490   5    236    223    239    263
  1491   5    229    223    239    263
  1492   6    373    223    239    263
  1493   1    359    223    229    253
  1494   2    359    223    229    621
  1495   1    236    223    229    253
  1496   2    236    223    229    621
  1497   3    239    223    229    253
  1498   4    239    223    229    621
  1499   3    373    223    229    253
  1500   4    373    223    229    621
  1501   5    359    223    373    393
  1502   5    236    223    373    393
  1503   6    239    223    373    393
  1504   5    229    223    373    393
  1505   1    235    224    228    248
  1506   2    235    224    228   1024
  1507   3    152    224    228    248
  1508   4    152    224    228   1024
  1509   1    142    224    228    248
  1510   2    142    224    228   1024
  1511   3    242    224    228    248
  1512   4    242    224    228   1024
  1513   1    228    224    235   1039
  1514   1    228    224    235    255
  1515   3    152    224    235   1039
  1516   3    152    224    235    255
  1517   1    142    224    235   1039
  1518   1    142    224    235    255
  1519   3    242    224    235   1039
  1520   3    242    224    235    255
  1521   5    228    224    242    262
  1522   5    235    224    242    262
  1523   6    152    224    242    262
  1524   5    142    224    242    262
  1525   7   1021    225    245    249
  1526   8   1021    225    245   1025
  1527   9    353    225    245    249
  1528  10    353    225    245   1025
  1529  11   1015   1021    225    245
  1530  12    245    225   1021   1045
  1531  13    353    225   1021   1015
  1532  11    353    225   1021   1045
  1533   1    366    353    225    245
  1534   3    369    353    225    245
  1535   1    363    353    225    245
  1536   3    243    353    225    245
  1537   2    366    353    225   1021
  1538   4    369    353    225   1021
  1539   2    363    353    225   1021
  1540   4    243    353    225   1021
  1541   9    222    226    246    250
  1542  10    222    226    246    630
  1543   7    626    226    246    250
  1544   8    626    226    246    630
  1545  13    222    226    626    576
  1546  11    222    226    626    650
  1547  11    576    626    226    246
  1548  12    246    226    626    650
  1549   9     91    227    247    251
  1550  10     91    227    247    631
  1551   7    627    227    247    251
  1552   8    627    227    247    631
  1553  13     91    227    627    617
  1554  11     91    227    627    651
  1555  11    617    627    227    247
  1556  12    247    227    627    651
  1557   9    224    228    248    252
  1558  10    224    228    248   1028
  1559   7   1024    228    248    252
  1560   8   1024    228    248   1028
  1561  13    224    228   1024    926
  1562  11    224    228   1024   1048
  1563  11    926   1024    228    248
  1564  12    248    228   1024   1048
  1565  10    223    229    253    233
  1566   9    223    229    253    257
  1567   8    621    229    253    233
  1568   7    621    229    253    257
  1569  11    223    229    621    641
  1570  13    223    229    621    749
  1571  12    253    229    621    641
  1572  11    749    621    229    253
  1573  10    180    230    254    234
  1574   9    180    230    254    258
  1575   8   1018    230    254    234
  1576   7   1018    230    254    258
  1577  13    180    230   1018   1014
  1578  11    180    230   1018   1038
  1579  11   1014   1018    230    254
  1580  12    254    230   1018   1038
  1581  10    221    231    255    235
  1582   9    221    231    255    259
  1583   8   1019    231    255    235
  1584   7   1019    231    255    259
  1585  13    221    231   1019    883
  1586  11    221    231   1019   1039
  1587  11    883   1019    231    255
  1588  12    255    231   1019   1039
  1589  10    134    232    256    236
  1590   9    134    232    256    260
  1591   8    624    232    256    236
  1592   7    624    232    256    260
  1593  13    134    232    624    620
  1594  11    134    232    624    644
  1595  11    620    624    232    256
  1596  12    256    232    624    644
  1597  10    222    233    641    621
  1598   9    222    233    641    645
  1599  14    253    233    641    621
  1600  15    253    233    641    645
  1601  10    222    233    253    229
  1602   9    222    233    253    257
  1603  14    641    233    253    229
  1604  15    641    233    253    257
  1605  10    221    234   1038   1018
  1606   9    221    234   1038   1042
  1607  14    254    234   1038   1018
  1608  15    254    234   1038   1042
  1609  10    221    234    254    230
  1610   9    221    234    254    258
  1611  14   1038    234    254    230
  1612  15   1038    234    254    258
  1613  10    224    235   1039   1019
  1614   9    224    235   1039   1043
  1615  14    255    235   1039   1019
  1616  15    255    235   1039   1043
  1617  10    224    235    255    231
  1618   9    224    235    255    259
  1619  14   1039    235    255    231
  1620  15   1039    235    255    259
  1621  10    223    236    644    624
  1622   9    223    236    644    648
  1623  14    256    236    644    624
  1624  15    256    236    644    648
  1625  10    223    236    256    232
  1626   9    223    236    256    260
  1627  14    644    236    256    232
  1628  15    644    236    256    260
  1629  16    221    237    261    241
  1630  17    221    237    261    131
  1631  16    134    238    262    242
  1632  17    134    238    262    176
  1633  16    223    239    263    243
  1634  17    223    239    263    393
  1635  17    180    240    264    218
  1636  16    180    240    264    244
  1637  16     91    241    261    237
  1638  17     91    241    261    131
  1639  16    224    242    262    238
  1640  17    224    242    262    176
  1641  16    353    243    263    239
  1642  17    353    243    263    393
  1643   5    225    353    243    263
  1644   5    366    353    243    263
  1645   6    369    353    243    263
  1646   5    363    353    243    263
  1647  17    222    244    264    218
  1648  16    222    244    264    240
  1649  10   1014   1025    245    225
  1650  14   1045   1025    245    225
  1651   9   1014   1025    245    249
  1652  15   1045   1025    245    249
  1653  10    617    630    246    226
  1654  14    650    630    246    226
  1655   9    617    630    246    250
  1656  15    650    630    246    250
  1657  10    620    631    247    227
  1658  14    651    631    247    227
  1659   9    620    631    247    251
  1660  15    651    631    247    251
  1661  10   1015   1028    248    228
  1662  14   1048   1028    248    228
  1663   9   1015   1028    248    252
  1664  15   1048   1028    248    252
  1665  18    239    263    393    369
  1666  18    239    263    393    373
  1667  18    243    263    393    369
  1668  18    243    263    393    373
  1669   1    137    265    278   1082
  1670   1    137    265    278    298
  1671   3    281    265    278   1082
  1672   3    281    265    278    298
  1673   1    275    265    278   1082
  1674   1    275    265    278    298
  1675   3    155    265    278   1082
  1676   3    155    265    278    298
  1677   5    137    265    281    305
  1678   5    278    265    281    305
  1679   5    275    265    281    305
  1680   6    155    265    281    305
  1681   1    137    265    275    299
  1682   2    137    265    275   1063
  1683   1    278    265    275    299
  1684   2    278    265    275   1063
  1685   3    281    265    275    299
  1686   4    281    265    275   1063
  1687   3    155    265    275    299
  1688   4    155    265    275   1063
  1689   1    277    266    270    290
  1690   2    277    266    270    670
  1691   3    370    266    270    290
  1692   4    370    266    270    670
  1693   1    364    266    270    290
  1694   2    364    266    270    670
  1695   3    288    266    270    290
  1696   4    288    266    270    670
  1697   1    270    266    277    685
  1698   1    270    266    277    297
  1699   3    370    266    277    685
  1700   3    370    266    277    297
  1701   1    364    266    277    685
  1702   1    364    266    277    297
  1703   3    288    266    277    685
  1704   3    288    266    277    297
  1705   5    270    266    370    394
  1706   5    277    266    370    394
  1707   5    364    266    370    394
  1708   6    288    266    370    394
  1709   1    270    266    364    388
  1710   2    270    266    364    756
  1711   1    277    266    364    388
  1712   2    277    266    364    756
  1713   3    370    266    364    388
  1714   4    370    266    364    756
  1715   3    288    266    364    388
  1716   4    288    266    364    756
  1717   5    270    266    288    308
  1718   5    277    266    288    308
  1719   6    370    266    288    308
  1720   5    364    266    288    308
  1721   1      7    267    280    688
  1722   1      7    267    280    300
  1723   3    283    267    280    688
  1724   3    283    267    280    300
  1725   1    273    267    280    688
  1726   1    273    267    280    300
  1727   3     21    267    280    688
  1728   3     21    267    280    300
  1729   5      7    267    283    307
  1730   5    280    267    283    307
  1731   5    273    267    283    307
  1732   6     21    267    283    307
  1733   1      7    267    273    297
  1734   2      7    267    273    665
  1735   1    280    267    273    297
  1736   2    280    267    273    665
  1737   3    283    267    273    297
  1738   4    283    267    273    665
  1739   3     21    267    273    297
  1740   4     21    267    273    665
  1741   1    279    268    272    292
  1742   2    279    268    272   1068
  1743   3    328    268    272    292
  1744   4    328    268    272   1068
  1745   1    318    268    272    292
  1746   2    318    268    272   1068
  1747   3    286    268    272    292
  1748   4    286    268    272   1068
  1749   1    272    268    279   1083
  1750   1    272    268    279    299
  1751   3    328    268    279   1083
  1752   3    328    268    279    299
  1753   1    318    268    279   1083
  1754   1    318    268    279    299
  1755   3    286    268    279   1083
  1756   3    286    268    279    299
  1757   5    272    268    328    352
  1758   5    279    268    328    352
  1759   5    318    268    328    352
  1760   6    286    268    328    352
  1761   1    272    268    318    342
  1762   2    272    268    318   1106
  1763   1    279    268    318    342
  1764   2    279    268    318   1106
  1765   3    328    268    318    342
  1766   4    328    268    318   1106
  1767   3    286    268    318    342
  1768   4    286    268    318   1106
  1769   5    272    268    286    306
  1770   5    279    268    286    306
  1771   6    328    268    286    306
  1772   5    318    268    286    306
  1773   9      1    269    289    293
  1774  10      1    269    289   1069
  1775   7   1065    269    289    293
  1776   8   1065    269    289   1069
  1777  13      1    269   1065   1059
  1778  11      1    269   1065   1089
  1779  11   1059   1065    269    289
  1780  12    289    269   1065   1089
  1781   9    266    270    290    294
  1782  10    266    270    290    674
  1783   7    670    270    290    294
  1784   8    670    270    290    674
  1785  11    266    270    670    694
  1786  13    266    270    670    752
  1787  12    290    270    670    694
  1788  11    752    670    270    290
  1789   9    135    271    291    295
  1790  10    135    271    291    675
  1791   7    671    271    291    295
  1792   8    671    271    291    675
  1793  13    135    271    671    661
  1794  11    135    271    671    695
  1795  11    661    671    271    291
  1796  12    291    271    671    695
  1797   9    268    272    292    296
  1798  10    268    272    292   1072
  1799   7   1068    272    292    296
  1800   8   1068    272    292   1072
  1801  11    268    272   1068   1092
  1802  13    268    272   1068   1102
  1803  12    292    272   1068   1092
  1804  11   1102   1068    272    292
  1805  10    267    273    297    277
  1806   9    267    273    297    301
  1807   8    665    273    297    277
  1808   7    665    273    297    301
  1809  13    267    273    665    397
  1810  11    267    273    665    685
  1811  11    397    665    273    297
  1812  12    297    273    665    685
  1813  10    356    274    298    278
  1814   9    356    274    298    302
  1815   8   1062    274    298    278
  1816   7   1062    274    298    302
  1817   1    360    356    274    298
  1818   1    367    356    274    298
  1819   3    284    356    274    298
  1820   3    374    356    274    298
  1821   2    360    356    274   1062
  1822   2    367    356    274   1062
  1823   4    284    356    274   1062
  1824   4    374    356    274   1062
  1825  11   1058   1062    274    298
  1826  12    298    274   1062   1082
  1827  13    356    274   1062   1058
  1828  11    356    274   1062   1082
  1829  10    265    275    299    279
  1830   9    265    275    299    303
  1831   8   1063    275    299    279
  1832   7   1063    275    299    303
  1833  13    265    275   1063    927
  1834  11    265    275   1063   1083
  1835  11    927   1063    275    299
  1836  12    299    275   1063   1083
  1837  10    310    276    300    280
  1838   9    310    276    300    304
  1839   8    668    276    300    280
  1840   7    668    276    300    304
  1841   1    314    310    276    300
  1842   1    321    310    276    300
  1843   3    282    310    276    300
  1844   3    332    310    276    300
  1845   2    314    310    276    668
  1846   2    321    310    276    668
  1847   4    282    310    276    668
  1848   4    332    310    276    668
  1849  11    664    668    276    300
  1850  12    300    276    668    688
  1851  13    310    276    668    664
  1852  11    310    276    668    688
  1853  10    266    277    685    665
  1854   9    266    277    685    689
  1855  14    297    277    685    665
  1856  15    297    277    685    689
  1857  10    266    277    297    273
  1858   9    266    277    297    301
  1859  14    685    277    297    273
  1860  15    685    277    297    301
  1861  10    265    278   1082   1062
  1862   9    265    278   1082   1086
  1863  14    298    278   1082   1062
  1864  15    298    278   1082   1086
  1865  10    265    278    298    274
  1866   9    265    278    298    302
  1867  14   1082    278    298    274
  1868  15   1082    278    298    302
  1869  10    268    279   1083   1063
  1870   9    268    279   1083   1087
  1871  14    299    279   1083   1063
  1872  15    299    279   1083   1087
  1873  10    268    279    299    275
  1874   9    268    279    299    303
  1875  14   1083    279    299    275
  1876  15   1083    279    299    303
  1877  10    267    280    688    668
  1878   9    267    280    688    692
  1879  14    300    280    688    668
  1880  15    300    280    688    692
  1881  10    267    280    300    276
  1882   9    267    280    300    304
  1883  14    688    280    300    276
  1884  15    688    280    300    304
  1885  16    265    281    305    285
  1886  17    265    281    305    175
  1887  16    310    282    306    286
  1888  17    310    282    306    352
  1889   5    314    310    282    306
  1890   5    321    310    282    306
  1891   5    276    310    282    306
  1892   6    332    310    282    306
  1893  17    267    283    307     41
  1894  16    267    283    307    287
  1895  16    356    284    308    288
  1896  17    356    284    308    394
  1897   5    360    356    284    308
  1898   5    367    356    284    308
  1899   5    274    356    284    308
  1900   6    374    356    284    308
  1901  16    135    285    305    281
  1902  17    135    285    305    175
  1903  16    268    286    306    282
  1904  17    268    286    306    352
  1905  17      1    287    307     41
  1906  16      1    287    307    283
  1907  16    266    288    308    284
  1908  17    266    288    308    394
  1909  10   1058   1069    289    269
  1910  14   1089   1069    289    269
  1911   9   1058   1069    289    293
  1912  15   1089   1069    289    293
  1913  10    661    674    290    270
  1914  14    694    674    290    270
  1915   9    661    674    290    294
  1916  15    694    674    290    294
  1917  10    664    675    291    271
  1918  14    695    675    291    271
  1919   9    664    675    291    295
  1920  15    695    675    291    295
  1921  10   1059   1072    292    272
  1922  14   1092   1072    292    272
  1923   9   1059   1072    292    296
  1924  15   1092   1072    292    296
  1925  18    282    306    352    328
  1926  18    282    306    352    332
  1927  18    286    306    352    328
  1928  18    286    306    352    332
  1929  18    284    308    394    370
  1930  18    284    308    394    374
  1931  18    288    308    394    370
  1932  18    288    308    394    374
  1933   1    181    309    322   1126
  1934   1    181    309    322    342
  1935   3    325    309    322   1126
  1936   3    325    309    322    342
  1937   1    319    309    322   1126
  1938   1    319    309    322    342
  1939   3    199    309    322   1126
  1940   3    199    309    322    342
  1941   5    181    309    325    349
  1942   5    322    309    325    349
  1943   5    319    309    325    349
  1944   6    199    309    325    349
  1945   1    181    309    319    343
  1946   2    181    309    319   1107
  1947   1    322    309    319    343
  1948   2    322    309    319   1107
  1949   3    325    309    319    343
  1950   4    325    309    319   1107
  1951   3    199    309    319    343
  1952   4    199    309    319   1107
  1953   1    321    310    314    334
  1954   2    321    310    314    714
  1955   3    282    310    314    334
  1956   4    282    310    314    714
  1957   1    276    310    314    334
  1958   2    276    310    314    714
  1959   3    332    310    314    334
  1960   4    332    310    314    714
  1961   1    314    310    321    729
  1962   1    314    310    321    341
  1963   3    282    310    321    729
  1964   3    282    310    321    341
  1965   1    276    310    321    729
  1966   1    276    310    321    341
  1967   3    332    310    321    729
  1968   3    332    310    321    341
  1969   5    314    310    332    352
  1970   5    321    310    332    352
  1971   6    282    310    332    352
  1972   5    276    310    332    352
  1973   1     51    311    324    732
  1974   1     51    311    324    344
  1975   3    327    311    324    732
  1976   3    327    311    324    344
  1977   1    317    311    324    732
  1978   1    317    311    324    344
  1979   3     65    311    324    732
  1980   3     65    311    324    344
  1981   5     51    311    327    351
  1982   5    324    311    327    351
  1983   5    317    311    327    351
  1984   6     65    311    327    351
  1985   1     51    311    317    341
  1986   2     51    311    317    709
  1987   1    324    311    317    341
  1988   2    324    311    317    709
  1989   3    327    311    317    341
  1990   4    327    311    317    709
  1991   3     65    311    317    341
  1992   4     65    311    317    709
  1993   1    323    312    316    336
  1994   2    323    312    316   1112
  1995   3    372    312    316    336
  1996   4    372    312    316   1112
  1997   1    362    312    316    336
  1998   2    362    312    316   1112
  1999   3    330    312    316    336
  2000   4    330    312    316   1112
  2001   1    316    312    323   1127
  2002   1    316    312    323    343
  2003   3    372    312    323   1127
  2004   3    372    312    323    343
  2005   1    362    312    323   1127
  2006   1    362    312    323    343
  2007   3    330    312    323   1127
  2008   3    330    312    323    343
  2009   5    316    312    372    396
  2010   5    323    312    372    396
  2011   5    362    312    372    396
  2012   6    330    312    372    396
  2013   1    316    312    362    386
  2014   2    316    312    362   1150
  2015   1    323    312    362    386
  2016   2    323    312    362   1150
  2017   3    372    312    362    386
  2018   4    372    312    362   1150
  2019   3    330    312    362    386
  2020   4    330    312    362   1150
  2021   5    316    312    330    350
  2022   5    323    312    330    350
  2023   6    372    312    330    350
  2024   5    362    312    330    350
  2025   9     45    313    333    337
  2026  10     45    313    333   1113
  2027   7   1109    313    333    337
  2028   8   1109    313    333   1113
  2029  13     45    313   1109   1103
  2030  11     45    313   1109   1133
  2031  11   1103   1109    313    333
  2032  12    333    313   1109   1133
  2033   9    310    314    334    338
  2034  10    310    314    334    718
  2035   7    714    314    334    338
  2036   8    714    314    334    718
  2037  13    310    314    714    664
  2038  11    310    314    714    738
  2039  11    664    714    314    334
  2040  12    334    314    714    738
  2041   9    179    315    335    339
  2042  10    179    315    335    719
  2043   7    715    315    335    339
  2044   8    715    315    335    719
  2045  13    179    315    715    705
  2046  11    179    315    715    739
  2047  11    705    715    315    335
  2048  12    335    315    715    739
  2049   9    312    316    336    340
  2050  10    312    316    336   1116
  2051   7   1112    316    336    340
  2052   8   1112    316    336   1116
  2053  11    312    316   1112   1136
  2054  13    312    316   1112   1146
  2055  12    336    316   1112   1136
  2056  11   1146   1112    316    336
  2057  10    311    317    341    321
  2058   9    311    317    341    345
  2059   8    709    317    341    321
  2060   7    709    317    341    345
  2061  13    311    317    709    441
  2062  11    311    317    709    729
  2063  11    441    709    317    341
  2064  12    341    317    709    729
  2065  10    268    318    342    322
  2066   9    268    318    342    346
  2067   8   1106    318    342    322
  2068   7   1106    318    342    346
  2069  13    268    318   1106   1102
  2070  11    268    318   1106   1126
  2071  11   1102   1106    318    342
  2072  12    342    318   1106   1126
  2073  10    309    319    343    323
  2074   9    309    319    343    347
  2075   8   1107    319    343    323
  2076   7   1107    319    343    347
  2077  13    309    319   1107    971
  2078  11    309    319   1107   1127
  2079  11    971   1107    319    343
  2080  12    343    319   1107   1127
  2081  10    354    320    344    324
  2082   9    354    320    344    348
  2083   8    712    320    344    324
  2084   7    712    320    344    348
  2085   1    358    354    320    344
  2086   1    365    354    320    344
  2087   3    326    354    320    344
  2088   3    376    354    320    344
  2089   2    358    354    320    712
  2090   2    365    354    320    712
  2091   4    326    354    320    712
  2092   4    376    354    320    712
  2093  11    708    712    320    344
  2094  12    344    320    712    732
  2095  13    354    320    712    708
  2096  11    354    320    712    732
  2097  10    310    321    729    709
  2098   9    310    321    729    733
  2099  14    341    321    729    709
  2100  15    341    321    729    733
  2101  10    310    321    341    317
  2102   9    310    321    341    345
  2103  14    729    321    341    317
  2104  15    729    321    341    345
  2105  10    309    322   1126   1106
  2106   9    309    322   1126   1130
  2107  14    342    322   1126   1106
  2108  15    342    322   1126   1130
  2109  10    309    322    342    318
  2110   9    309    322    342    346
  2111  14   1126    322    342    318
  2112  15   1126    322    342    346
  2113  10    312    323   1127   1107
  2114   9    312    323   1127   1131
  2115  14    343    323   1127   1107
  2116  15    343    323   1127   1131
  2117  10    312    323    343    319
  2118   9    312    323    343    347
  2119  14   1127    323    343    319
  2120  15   1127    323    343    347
  2121  10    311    324    732    712
  2122   9    311    324    732    736
  2123  14    344    324    732    712
  2124  15    344    324    732    736
  2125  10    311    324    344    320
  2126   9    311    324    344    348
  2127  14    732    324    344    320
  2128  15    732    324    344    348
  2129  16    309    325    349    329
  2130  17    309    325    349    219
  2131  16    354    326    350    330
  2132  17    354    326    350    396
  2133   5    358    354    326    350
  2134   5    365    354    326    350
  2135   5    320    354    326    350
  2136   6    376    354    326    350
  2137  17    311    327    351     85
  2138  16    311    327    351    331
  2139  17    268    328    352    306
  2140  16    268    328    352    332
  2141  16    179    329    349    325
  2142  17    179    329    349    219
  2143  16    312    330    350    326
  2144  17    312    330    350    396
  2145  17     45    331    351     85
  2146  16     45    331    351    327
  2147  17    310    332    352    306
  2148  16    310    332    352    328
  2149  10   1102   1113    333    313
  2150  14   1133   1113    333    313
  2151   9   1102   1113    333    337
  2152  15   1133   1113    333    337
  2153  10    705    718    334    314
  2154  14    738    718    334    314
  2155   9    705    718    334    338
  2156  15    738    718    334    338
  2157  10    708    719    335    315
  2158  14    739    719    335    315
  2159   9    708    719    335    339
  2160  15    739    719    335    339
  2161  10   1103   1116    336    316
  2162  14   1136   1116    336    316
  2163   9   1103   1116    336    340
  2164  15   1136   1116    336    340
  2165  18    326    350    396    372
  2166  18    326    350    396    376
  2167  18    330    350    396    372
  2168  18    330    350    396    376
  2169   1    225    353    366   1170
  2170   1    225    353    366    386
  2171   3    369    353    366   1170
  2172   3    369    353    366    386
  2173   1    363    353    366   1170
  2174   1    363    353    366    386
  2175   3    243    353    366   1170
  2176   3    243    353    366    386
  2177   5    225    353    369    393
  2178   5    366    353    369    393
  2179   5    363    353    369    393
  2180   6    243    353    369    393
  2181   1    225    353    363    387
  2182   2    225    353    363   1151
  2183   1    366    353    363    387
  2184   2    366    353    363   1151
  2185   3    369    353    363    387
  2186   4    369    353    363   1151
  2187   3    243    353    363    387
  2188   4    243    353    363   1151
  2189   1    365    354    358    378
  2190   2    365    354    358    758
  2191   3    326    354    358    378
  2192   4    326    354    358    758
  2193   1    320    354    358    378
  2194   2    320    354    358    758
  2195   3    376    354    358    378
  2196   4    376    354    358    758
  2197   1    358    354    365    773
  2198   1    358    354    365    385
  2199   3    326    354    365    773
  2200   3    326    354    365    385
  2201   1    320    354    365    773
  2202   1    320    354    365    385
  2203   3    376    354    365    773
  2204   3    376    354    365    385
  2205   5    358    354    376    396
  2206   5    365    354    376    396
  2207   6    326    354    376    396
  2208   5    320    354    376    396
  2209   1     95    355    368    776
  2210   1     95    355    368    388
  2211   3    371    355    368    776
  2212   3    371    355    368    388
  2213   1    361    355    368    776
  2214   1    361    355    368    388
  2215   3    109    355    368    776
  2216   3    109    355    368    388
  2217   5     95    355    371    395
  2218   5    368    355    371    395
  2219   5    361    355    371    395
  2220   6    109    355    371    395
  2221   1     95    355    361    385
  2222   2     95    355    361    753
  2223   1    368    355    361    385
  2224   2    368    355    361    753
  2225   3    371    355    361    385
  2226   4    371    355    361    753
  2227   3    109    355    361    385
  2228   4    109    355    361    753
  2229   1    367    356    360    380
  2230   2    367    356    360   1156
  2231   3    284    356    360    380
  2232   4    284    356    360   1156
  2233   1    274    356    360    380
  2234   2    274    356    360   1156
  2235   3    374    356    360    380
  2236   4    374    356    360   1156
  2237   1    360    356    367   1171
  2238   1    360    356    367    387
  2239   3    284    356    367   1171
  2240   3    284    356    367    387
  2241   1    274    356    367   1171
  2242   1    274    356    367    387
  2243   3    374    356    367   1171
  2244   3    374    356    367    387
  2245   5    360    356    374    394
  2246   5    367    356    374    394
  2247   6    284    356    374    394
  2248   5    274    356    374    394
  2249   9     89    357    377    381
  2250  10     89    357    377   1157
  2251   7   1153    357    377    381
  2252   8   1153    357    377   1157
  2253  13     89    357   1153   1147
  2254  11     89    357   1153   1177
  2255  11   1147   1153    357    377
  2256  12    377    357   1153   1177
  2257   9    354    358    378    382
  2258  10    354    358    378    762
  2259   7    758    358    378    382
  2260   8    758    358    378    762
  2261  13    354    358    758    708
  2262  11    354    358    758    782
  2263  11    708    758    358    378
  2264  12    378    358    758    782
  2265   9    223    359    379    383
  2266  10    223    359    379    763
  2267   7    759    359    379    383
  2268   8    759    359    379    763
  2269  13    223    359    759    749
  2270  11    223    359    759    783
  2271  11    749    759    359    379
  2272  12    379    359    759    783
  2273   9    356    360    380    384
  2274  10    356    360    380   1160
  2275   7   1156    360    380    384
  2276   8   1156    360    380   1160
  2277  13    356    360   1156   1058
  2278  11    356    360   1156   1180
  2279  11   1058   1156    360    380
  2280  12    380    360   1156   1180
  2281  10    355    361    385    365
  2282   9    355    361    385    389
  2283   8    753    361    385    365
  2284   7    753    361    385    389
  2285  13    355    361    753    485
  2286  11    355    361    753    773
  2287  11    485    753    361    385
  2288  12    385    361    753    773
  2289  10    312    362    386    366
  2290   9    312    362    386    390
  2291   8   1150    362    386    366
  2292   7   1150    362    386    390
  2293  13    312    362   1150   1146
  2294  11    312    362   1150   1170
  2295  11   1146   1150    362    386
  2296  12    386    362   1150   1170
  2297  10    353    363    387    367
  2298   9    353    363    387    391
  2299   8   1151    363    387    367
  2300   7   1151    363    387    391
  2301  13    353    363   1151   1015
  2302  11    353    363   1151   1171
  2303  11   1015   1151    363    387
  2304  12    387    363   1151   1171
  2305  10    266    364    388    368
  2306   9    266    364    388    392
  2307   8    756    364    388    368
  2308   7    756    364    388    392
  2309  13    266    364    756    752
  2310  11    266    364    756    776
  2311  11    752    756    364    388
  2312  12    388    364    756    776
  2313  10    354    365    773    753
  2314   9    354    365    773    777
  2315  14    385    365    773    753
  2316  15    385    365    773    777
  2317  10    354    365    385    361
  2318   9    354    365    385    389
  2319  14    773    365    385    361
  2320  15    773    365    385    389
  2321  10    353    366   1170   1150
  2322   9    353    366   1170   1174
  2323  14    386    366   1170   1150
  2324  15    386    366   1170   1174
  2325  10    353    366    386    362
  2326   9    353    366    386    390
  2327  14   1170    366    386    362
  2328  15   1170    366    386    390
  2329  10    356    367   1171   1151
  2330   9    356    367   1171   1175
  2331  14    387    367   1171   1151
  2332  15    387    367   1171   1175
  2333  10    356    367    387    363
  2334   9    356    367    387    391
  2335  14   1171    367    387    363
  2336  15   1171    367    387    391
  2337  10    355    368    776    756
  2338   9    355    368    776    780
  2339  14    388    368    776    756
  2340  15    388    368    776    780
  2341  10    355    368    388    364
  2342   9    355    368    388    392
  2343  14    776    368    388    364
  2344  15    776    368    388    392
  2345  16    353    369    393    373
  2346  17    353    369    393    263
  2347  16    266    370    394    374
  2348  17    266    370    394    308
  2349  17    355    371    395    129
  2350  16    355    371    395    375
  2351  17    312    372    396    350
  2352  16    312    372    396    376
  2353  16    223    373    393    369
  2354  17    223    373    393    263
  2355  16    356    374    394    370
  2356  17    356    374    394    308
  2357  17     89    375    395    129
  2358  16     89    375    395    371
  2359  17    354    376    396    350
  2360  16    354    376    396    372
  2361  10   1146   1157    377    357
  2362  14   1177   1157    377    357
  2363   9   1146   1157    377    381
  2364  15   1177   1157    377    381
  2365  10    749    762    378    358
  2366  14    782    762    378    358
  2367   9    749    762    378    382
  2368  15    782    762    378    382
  2369  10    752    763    379    359
  2370  14    783    763    379    359
  2371   9    752    763    379    383
  2372  15    783    763    379    383
  2373  10   1147   1160    380    360
  2374  14   1180   1160    380    360
  2375   9   1147   1160    380    384
  2376  15   1180   1160    380    384
  2377   1    410    397    665    685
  2378   2    410    397    665    273
  2379   3    413    397    665    685
  2380   4    413    397    665    273
  2381   1    407    397    665    685
  2382   2    407    397    665    273
  2383   3    683    397    665    685
  2384   4    683    397    665    273
  2385   1    665    397    410     26
  2386   1    665    397    410    430
  2387   3    413    397    410     26
  2388   3    413    397    410    430
  2389   1    407    397    410     26
  2390   1    407    397    410    430
  2391   3    683    397    410     26
  2392   3    683    397    410    430
  2393   5    665    397    413    437
  2394   5    410    397    413    437
  2395   5    407    397    413    437
  2396   6    683    397    413    437
  2397   2    665    397    407      7
  2398   1    665    397    407    431
  2399   2    410    397    407      7
  2400   1    410    397    407    431
  2401   4    413    397    407      7
  2402   3    413    397    407    431
  2403   4    683    397    407      7
  2404   3    683    397    407    431
  2405   5    665    397    683    703
  2406   5    410    397    683    703
  2407   6    413    397    683    703
  2408   5    407    397    683    703
  2409   1    409    398    402    422
  2410   2    409    398    402    802
  2411   3    502    398    402    422
  2412   4    502    398    402    802
  2413   1    496    398    402    422
  2414   2    496    398    402    802
  2415   3    420    398    402    422
  2416   4    420    398    402    802
  2417   1    402    398    409    817
  2418   1    402    398    409    429
  2419   3    502    398    409    817
  2420   3    502    398    409    429
  2421   1    496    398    409    817
  2422   1    496    398    409    429
  2423   3    420    398    409    817
  2424   3    420    398    409    429
  2425   5    402    398    502    526
  2426   5    409    398    502    526
  2427   5    496    398    502    526
  2428   6    420    398    502    526
  2429   1    402    398    496    520
  2430   2    402    398    496    888
  2431   1    409    398    496    520
  2432   2    409    398    496    888
  2433   3    502    398    496    520
  2434   4    502    398    496    888
  2435   3    420    398    496    520
  2436   4    420    398    496    888
  2437   5    402    398    420    440
  2438   5    409    398    420    440
  2439   6    502    398    420    440
  2440   5    496    398    420    440
  2441   1    412    399    535    555
  2442   2    412    399    535    935
  2443   3    415    399    535    555
  2444   4    415    399    535    935
  2445   1    405    399    535    555
  2446   2    405    399    535    935
  2447   3    549    399    535    555
  2448   4    549    399    535    935
  2449   1    535    399    412    820
  2450   1    535    399    412    432
  2451   3    415    399    412    820
  2452   3    415    399    412    432
  2453   1    405    399    412    820
  2454   1    405    399    412    432
  2455   3    549    399    412    820
  2456   3    549    399    412    432
  2457   5    535    399    415    439
  2458   5    412    399    415    439
  2459   5    405    399    415    439
  2460   6    549    399    415    439
  2461   1    535    399    405    429
  2462   2    535    399    405    797
  2463   1    412    399    405    429
  2464   2    412    399    405    797
  2465   3    415    399    405    429
  2466   4    415    399    405    797
  2467   3    549    399    405    429
  2468   4    549    399    405    797
  2469   5    535    399    549    569
  2470   5    412    399    549    569
  2471   6    415    399    549    569
  2472   5    405    399    549    569
  2473   1    411    400    404    424
  2474   2    411    400    404     12
  2475   3    460    400    404    424
  2476   4    460    400    404     12
  2477   1    450    400    404    424
  2478   2    450    400    404     12
  2479   3    418    400    404    424
  2480   4    418    400    404     12
  2481   1    404    400    411     27
  2482   1    404    400    411    431
  2483   3    460    400    411     27
  2484   3    460    400    411    431
  2485   1    450    400    411     27
  2486   1    450    400    411    431
  2487   3    418    400    411     27
  2488   3    418    400    411    431
  2489   5    404    400    460    484
  2490   5    411    400    460    484
  2491   5    450    400    460    484
  2492   6    418    400    460    484
  2493   2    404    400    450     50
  2494   1    404    400    450    474
  2495   2    411    400    450     50
  2496   1    411    400    450    474
  2497   4    460    400    450     50
  2498   3    460    400    450    474
  2499   4    418    400    450     50
  2500   3    418    400    450    474
  2501   5    404    400    418    438
  2502   5    411    400    418    438
  2503   6    460    400    418    438
  2504   5    450    400    418    438
  2505   8      9    401    421     13
  2506   7      9    401    421    425
  2507  10    529    401    421     13
  2508   9    529    401    421    425
  2509   1    542    529    401    421
  2510   3    545    529    401    421
  2511   1    539    529    401    421
  2512   3    419    529    401    421
  2513   2    542    529    401      9
  2514   4    545    529    401      9
  2515   2    539    529    401      9
  2516   4    419    529    401      9
  2517   9    398    402    422    426
  2518  10    398    402    422    806
  2519   7    802    402    422    426
  2520   8    802    402    422    806
  2521  11    398    402    802    826
  2522  13    398    402    802    884
  2523  12    422    402    802    826
  2524  11    884    802    402    422
  2525   7    803    403    423    427
  2526   8    803    403    423    807
  2527   9    663    403    423    427
  2528  10    663    403    423    807
  2529  11    793    803    403    423
  2530  12    423    403    803    827
  2531  13    663    403    803    793
  2532  11    663    403    803    827
  2533   1    676    663    403    423
  2534   3    679    663    403    423
  2535   1    669    663    403    423
  2536   3    417    663    403    423
  2537   2    676    663    403    803
  2538   4    679    663    403    803
  2539   2    669    663    403    803
  2540   4    417    663    403    803
  2541  10    400    404    424     16
  2542   9    400    404    424    428
  2543   8     12    404    424     16
  2544   7     12    404    424    428
  2545  10    399    405    429    409
  2546   9    399    405    429    433
  2547   8    797    405    429    409
  2548   7    797    405    429    433
  2549  11    399    405    797    817
  2550  13    399    405    797    925
  2551  12    429    405    797    817
  2552  11    925    797    405    429
  2553   8      6    406    430    410
  2554   7      6    406    430    434
  2555  10    488    406    430    410
  2556   9    488    406    430    434
  2557   2    492    488    406      6
  2558   2    499    488    406      6
  2559   4    416    488    406      6
  2560   4    506    488    406      6
  2561   1    492    488    406    430
  2562   1    499    488    406    430
  2563   3    416    488    406    430
  2564   3    506    488    406    430
  2565   8      7    407    431    411
  2566   7      7    407    431    435
  2567  10    397    407    431    411
  2568   9    397    407    431    435
  2569  10    442    408    432    412
  2570   9    442    408    432    436
  2571   8    800    408    432    412
  2572   7    800    408    432    436
  2573   1    446    442    408    432
  2574   1    453    442    408    432
  2575   3    414    442    408    432
  2576   3    464    442    408    432
  2577   2    446    442    408    800
  2578   2    453    442    408    800
  2579   4    414    442    408    800
  2580   4    464    442    408    800
  2581  11    796    800    408    432
  2582  12    432    408    800    820
  2583  13    442    408    800    796
  2584  11    442    408    800    820
  2585  10    398    409    817    797
  2586   9    398    409    817    821
  2587  14    429    409    817    797
  2588  15    429    409    817    821
  2589  10    398    409    429    405
  2590   9    398    409    429    433
  2591  14    817    409    429    405
  2592  15    817    409    429    433
  2593  10    397    410    430    406
  2594   9    397    410    430    434
  2595  14     26    410    430    406
  2596  15     26    410    430    434
  2597  10    400    411    431    407
  2598   9    400    411    431    435
  2599  14     27    411    431    407
  2600  15     27    411    431    435
  2601  10    399    412    820    800
  2602   9    399    412    820    824
  2603  14    432    412    820    800
  2604  15    432    412    820    824
  2605  10    399    412    432    408
  2606   9    399    412    432    436
  2607  14    820    412    432    408
  2608  15    820    412    432    436
  2609  16    397    413    437    417
  2610  17    397    413    437    703
  2611  16    442    414    438    418
  2612  17    442    414    438    484
  2613   5    446    442    414    438
  2614   5    453    442    414    438
  2615   5    408    442    414    438
  2616   6    464    442    414    438
  2617  16    399    415    439    419
  2618  17    399    415    439    569
  2619  16    488    416    440    420
  2620  17    488    416    440    526
  2621   5    492    488    416    440
  2622   5    499    488    416    440
  2623   5    406    488    416    440
  2624   6    506    488    416    440
  2625  16    663    417    437    413
  2626  17    663    417    437    703
  2627   5    403    663    417    437
  2628   5    676    663    417    437
  2629   6    679    663    417    437
  2630   5    669    663    417    437
  2631  16    400    418    438    414
  2632  17    400    418    438    484
  2633  16    529    419    439    415
  2634  17    529    419    439    569
  2635   5    401    529    419    439
  2636   5    542    529    419    439
  2637   6    545    529    419    439
  2638   5    539    529    419    439
  2639  16    398    420    440    416
  2640  17    398    420    440    526
  2641  10    793    806    422    402
  2642  14    826    806    422    402
  2643   9    793    806    422    426
  2644  15    826    806    422    426
  2645  10    796    807    423    403
  2646  14    827    807    423    403
  2647   9    796    807    423    427
  2648  15    827    807    423    427
  2649  18    413    437    703    679
  2650  18    413    437    703    683
  2651  18    417    437    703    679
  2652  18    417    437    703    683
  2653  18    414    438    484    460
  2654  18    414    438    484    464
  2655  18    418    438    484    460
  2656  18    418    438    484    464
  2657  18    415    439    569    545
  2658  18    415    439    569    549
  2659  18    419    439    569    545
  2660  18    419    439    569    549
  2661  18    416    440    526    502
  2662  18    416    440    526    506
  2663  18    420    440    526    502
  2664  18    420    440    526    506
  2665   1    454    441    709    729
  2666   2    454    441    709    317
  2667   3    457    441    709    729
  2668   4    457    441    709    317
  2669   1    451    441    709    729
  2670   2    451    441    709    317
  2671   3    727    441    709    729
  2672   4    727    441    709    317
  2673   1    709    441    454     70
  2674   1    709    441    454    474
  2675   3    457    441    454     70
  2676   3    457    441    454    474
  2677   1    451    441    454     70
  2678   1    451    441    454    474
  2679   3    727    441    454     70
  2680   3    727    441    454    474
  2681   5    709    441    457    481
  2682   5    454    441    457    481
  2683   5    451    441    457    481
  2684   6    727    441    457    481
  2685   2    709    441    451     51
  2686   1    709    441    451    475
  2687   2    454    441    451     51
  2688   1    454    441    451    475
  2689   4    457    441    451     51
  2690   3    457    441    451    475
  2691   4    727    441    451     51
  2692   3    727    441    451    475
  2693   5    709    441    727    747
  2694   5    454    441    727    747
  2695   6    457    441    727    747
  2696   5    451    441    727    747
  2697   1    453    442    446    466
  2698   2    453    442    446    846
  2699   3    414    442    446    466
  2700   4    414    442    446    846
  2701   1    408    442    446    466
  2702   2    408    442    446    846
  2703   3    464    442    446    466
  2704   4    464    442    446    846
  2705   1    446    442    453    861
  2706   1    446    442    453    473
  2707   3    414    442    453    861
  2708   3    414    442    453    473
  2709   1    408    442    453    861
  2710   1    408    442    453    473
  2711   3    464    442    453    861
  2712   3    464    442    453    473
  2713   5    446    442    464    484
  2714   5    453    442    464    484
  2715   6    414    442    464    484
  2716   5    408    442    464    484
  2717   1    456    443    579    599
  2718   2    456    443    579    979
  2719   3    459    443    579    599
  2720   4    459    443    579    979
  2721   1    449    443    579    599
  2722   2    449    443    579    979
  2723   3    593    443    579    599
  2724   4    593    443    579    979
  2725   1    579    443    456    864
  2726   1    579    443    456    476
  2727   3    459    443    456    864
  2728   3    459    443    456    476
  2729   1    449    443    456    864
  2730   1    449    443    456    476
  2731   3    593    443    456    864
  2732   3    593    443    456    476
  2733   5    579    443    459    483
  2734   5    456    443    459    483
  2735   5    449    443    459    483
  2736   6    593    443    459    483
  2737   1    579    443    449    473
  2738   2    579    443    449    841
  2739   1    456    443    449    473
  2740   2    456    443    449    841
  2741   3    459    443    449    473
  2742   4    459    443    449    841
  2743   3    593    443    449    473
  2744   4    593    443    449    841
  2745   5    579    443    593    613
  2746   5    456    443    593    613
  2747   6    459    443    593    613
  2748   5    449    443    593    613
  2749   1    455    444    448    468
  2750   2    455    444    448     56
  2751   3    504    444    448    468
  2752   4    504    444    448     56
  2753   1    494    444    448    468
  2754   2    494    444    448     56
  2755   3    462    444    448    468
  2756   4    462    444    448     56
  2757   1    448    444    455     71
  2758   1    448    444    455    475
  2759   3    504    444    455     71
  2760   3    504    444    455    475
  2761   1    494    444    455     71
  2762   1    494    444    455    475
  2763   3    462    444    455     71
  2764   3    462    444    455    475
  2765   5    448    444    504    528
  2766   5    455    444    504    528
  2767   5    494    444    504    528
  2768   6    462    444    504    528
  2769   2    448    444    494     94
  2770   1    448    444    494    518
  2771   2    455    444    494     94
  2772   1    455    444    494    518
  2773   4    504    444    494     94
  2774   3    504    444    494    518
  2775   4    462    444    494     94
  2776   3    462    444    494    518
  2777   5    448    444    462    482
  2778   5    455    444    462    482
  2779   6    504    444    462    482
  2780   5    494    444    462    482
  2781   8     53    445    465     57
  2782   7     53    445    465    469
  2783  10    573    445    465     57
  2784   9    573    445    465    469
  2785   1    586    573    445    465
  2786   3    589    573    445    465
  2787   1    583    573    445    465
  2788   3    463    573    445    465
  2789   2    586    573    445     53
  2790   4    589    573    445     53
  2791   2    583    573    445     53
  2792   4    463    573    445     53
  2793   9    442    446    466    470
  2794  10    442    446    466    850
  2795   7    846    446    466    470
  2796   8    846    446    466    850
  2797  13    442    446    846    796
  2798  11    442    446    846    870
  2799  11    796    846    446    466
  2800  12    466    446    846    870
  2801   7    847    447    467    471
  2802   8    847    447    467    851
  2803   9    707    447    467    471
  2804  10    707    447    467    851
  2805  11    837    847    447    467
  2806  12    467    447    847    871
  2807  13    707    447    847    837
  2808  11    707    447    847    871
  2809   1    720    707    447    467
  2810   3    723    707    447    467
  2811   1    713    707    447    467
  2812   3    461    707    447    467
  2813   2    720    707    447    847
  2814   4    723    707    447    847
  2815   2    713    707    447    847
  2816   4    461    707    447    847
  2817  10    444    448    468     60
  2818   9    444    448    468    472
  2819   8     56    448    468     60
  2820   7     56    448    468    472
  2821  10    443    449    473    453
  2822   9    443    449    473    477
  2823   8    841    449    473    453
  2824   7    841    449    473    477
  2825  11    443    449    841    861
  2826  13    443    449    841    969
  2827  12    473    449    841    861
  2828  11    969    841    449    473
  2829   8     50    450    474    454
  2830   7     50    450    474    478
  2831  10    400    450    474    454
  2832   9    400    450    474    478
  2833   8     51    451    475    455
  2834   7     51    451    475    479
  2835  10    441    451    475    455
  2836   9    441    451    475    479
  2837  10    486    452    476    456
  2838   9    486    452    476    480
  2839   8    844    452    476    456
  2840   7    844    452    476    480
  2841   1    490    486    452    476
  2842   1    497    486    452    476
  2843   3    458    486    452    476
  2844   3    508    486    452    476
  2845   2    490    486    452    844
  2846   2    497    486    452    844
  2847   4    458    486    452    844
  2848   4    508    486    452    844
  2849  11    840    844    452    476
  2850  12    476    452    844    864
  2851  13    486    452    844    840
  2852  11    486    452    844    864
  2853  10    442    453    861    841
  2854   9    442    453    861    865
  2855  14    473    453    861    841
  2856  15    473    453    861    865
  2857  10    442    453    473    449
  2858   9    442    453    473    477
  2859  14    861    453    473    449
  2860  15    861    453    473    477
  2861  10    441    454    474    450
  2862   9    441    454    474    478
  2863  14     70    454    474    450
  2864  15     70    454    474    478
  2865  10    444    455    475    451
  2866   9    444    455    475    479
  2867  14     71    455    475    451
  2868  15     71    455    475    479
  2869  10    443    456    864    844
  2870   9    443    456    864    868
  2871  14    476    456    864    844
  2872  15    476    456    864    868
  2873  10    443    456    476    452
  2874   9    443    456    476    480
  2875  14    864    456    476    452
  2876  15    864    456    476    480
  2877  16    441    457    481    461
  2878  17    441    457    481    747
  2879  16    486    458    482    462
  2880  17    486    458    482    528
  2881   5    490    486    458    482
  2882   5    497    486    458    482
  2883   5    452    486    458    482
  2884   6    508    486    458    482
  2885  16    443    459    483    463
  2886  17    443    459    483    613
  2887  17    400    460    484    438
  2888  16    400    460    484    464
  2889  16    707    461    481    457
  2890  17    707    461    481    747
  2891   5    447    707    461    481
  2892   5    720    707    461    481
  2893   6    723    707    461    481
  2894   5    713    707    461    481
  2895  16    444    462    482    458
  2896  17    444    462    482    528
  2897  16    573    463    483    459
  2898  17    573    463    483    613
  2899   5    445    573    463    483
  2900   5    586    573    463    483
  2901   6    589    573    463    483
  2902   5    583    573    463    483
  2903  17    442    464    484    438
  2904  16    442    464    484    460
  2905  10    837    850    466    446
  2906  14    870    850    466    446
  2907   9    837    850    466    470
  2908  15    870    850    466    470
  2909  10    840    851    467    447
  2910  14    871    851    467    447
  2911   9    840    851    467    471
  2912  15    871    851    467    471
  2913  18    457    481    747    723
  2914  18    457    481    747    727
  2915  18    461    481    747    723
  2916  18    461    481    747    727
  2917  18    458    482    528    504
  2918  18    458    482    528    508
  2919  18    462    482    528    504
  2920  18    462    482    528    508
  2921  18    459    483    613    589
  2922  18    459    483    613    593
  2923  18    463    483    613    589
  2924  18    463    483    613    593
  2925   1    498    485    753    773
  2926   2    498    485    753    361
  2927   3    501    485    753    773
  2928   4    501    485    753    361
  2929   1    495    485    753    773
  2930   2    495    485    753    361
  2931   3    771    485    753    773
  2932   4    771    485    753    361
  2933   1    753    485    498    114
  2934   1    753    485    498    518
  2935   3    501    485    498    114
  2936   3    501    485    498    518
  2937   1    495    485    498    114
  2938   1    495    485    498    518
  2939   3    771    485    498    114
  2940   3    771    485    498    518
  2941   5    753    485    501    525
  2942   5    498    485    501    525
  2943   5    495    485    501    525
  2944   6    771    485    501    525
  2945   2    753    485    495     95
  2946   1    753    485    495    519
  2947   2    498    485    495     95
  2948   1    498    485    495    519
  2949   4    501    485    495     95
  2950   3    501    485    495    519
  2951   4    771    485    495     95
  2952   3    771    485    495    519
  2953   5    753    485    771    791
  2954   5    498    485    771    791
  2955   6    501    485    771    791
  2956   5    495    485    771    791
  2957   1    497    486    490    510
  2958   2    497    486    490    890
  2959   3    458    486    490    510
  2960   4    458    486    490    890
  2961   1    452    486    490    510
  2962   2    452    486    490    890
  2963   3    508    486    490    510
  2964   4    508    486    490    890
  2965   1    490    486    497    905
  2966   1    490    486    497    517
  2967   3    458    486    497    905
  2968   3    458    486    497    517
  2969   1    452    486    497    905
  2970   1    452    486    497    517
  2971   3    508    486    497    905
  2972   3    508    486    497    517
  2973   5    490    486    508    528
  2974   5    497    486    508    528
  2975   6    458    486    508    528
  2976   5    452    486    508    528
  2977   1    500    487    623    643
  2978   2    500    487    623   1023
  2979   3    503    487    623    643
  2980   4    503    487    623   1023
  2981   1    493    487    623    643
  2982   2    493    487    623   1023
  2983   3    637    487    623    643
  2984   4    637    487    623   1023
  2985   1    623    487    500    908
  2986   1    623    487    500    520
  2987   3    503    487    500    908
  2988   3    503    487    500    520
  2989   1    493    487    500    908
  2990   1    493    487    500    520
  2991   3    637    487    500    908
  2992   3    637    487    500    520
  2993   5    623    487    503    527
  2994   5    500    487    503    527
  2995   5    493    487    503    527
  2996   6    637    487    503    527
  2997   1    623    487    493    517
  2998   2    623    487    493    885
  2999   1    500    487    493    517
  3000   2    500    487    493    885
  3001   3    503    487    493    517
  3002   4    503    487    493    885
  3003   3    637    487    493    517
  3004   4    637    487    493    885
  3005   5    623    487    637    657
  3006   5    500    487    637    657
  3007   6    503    487    637    657
  3008   5    493    487    637    657
  3009   1    499    488    492    512
  3010   2    499    488    492    100
  3011   3    416    488    492    512
  3012   4    416    488    492    100
  3013   1    406    488    492    512
  3014   2    406    488    492    100
  3015   3    506    488    492    512
  3016   4    506    488    492    100
  3017   1    492    488    499    115
  3018   1    492    488    499    519
  3019   3    416    488    499    115
  3020   3    416    488    499    519
  3021   1    406    488    499    115
  3022   1    406    488    499    519
  3023   3    506    488    499    115
  3024   3    506    488    499    519
  3025   5    492    488    506    526
  3026   5    499    488    506    526
  3027   6    416    488    506    526
  3028   5    406    488    506    526
  3029   8     97    489    509    101
  3030   7     97    489    509    513
  3031  10    617    489    509    101
  3032   9    617    489    509    513
  3033   1    630    617    489    509
  3034   3    633    617    489    509
  3035   1    627    617    489    509
  3036   3    507    617    489    509
  3037   2    630    617    489     97
  3038   4    633    617    489     97
  3039   2    627    617    489     97
  3040   4    507    617    489     97
  3041   9    486    490    510    514
  3042  10    486    490    510    894
  3043   7    890    490    510    514
  3044   8    890    490    510    894
  3045  13    486    490    890    840
  3046  11    486    490    890    914
  3047  11    840    890    490    510
  3048  12    510    490    890    914
  3049   7    891    491    511    515
  3050   8    891    491    511    895
  3051   9    751    491    511    515
  3052  10    751    491    511    895
  3053  11    881    891    491    511
  3054  12    511    491    891    915
  3055  13    751    491    891    881
  3056  11    751    491    891    915
  3057   1    764    751    491    511
  3058   3    767    751    491    511
  3059   1    757    751    491    511
  3060   3    505    751    491    511
  3061   2    764    751    491    891
  3062   4    767    751    491    891
  3063   2    757    751    491    891
  3064   4    505    751    491    891
  3065  10    488    492    512    104
  3066   9    488    492    512    516
  3067   8    100    492    512    104
  3068   7    100    492    512    516
  3069  10    487    493    517    497
  3070   9    487    493    517    521
  3071   8    885    493    517    497
  3072   7    885    493    517    521
  3073  11    487    493    885    905
  3074  13    487    493    885   1013
  3075  12    517    493    885    905
  3076  11   1013    885    493    517
  3077   8     94    494    518    498
  3078   7     94    494    518    522
  3079  10    444    494    518    498
  3080   9    444    494    518    522
  3081   8     95    495    519    499
  3082   7     95    495    519    523
  3083  10    485    495    519    499
  3084   9    485    495    519    523
  3085  10    398    496    520    500
  3086   9    398    496    520    524
  3087   8    888    496    520    500
  3088   7    888    496    520    524
  3089  13    398    496    888    884
  3090  11    398    496    888    908
  3091  11    884    888    496    520
  3092  12    520    496    888    908
  3093  10    486    497    905    885
  3094   9    486    497    905    909
  3095  14    517    497    905    885
  3096  15    517    497    905    909
  3097  10    486    497    517    493
  3098   9    486    497    517    521
  3099  14    905    497    517    493
  3100  15    905    497    517    521
  3101  10    485    498    518    494
  3102   9    485    498    518    522
  3103  14    114    498    518    494
  3104  15    114    498    518    522
  3105  10    488    499    519    495
  3106   9    488    499    519    523
  3107  14    115    499    519    495
  3108  15    115    499    519    523
  3109  10    487    500    908    888
  3110   9    487    500    908    912
  3111  14    520    500    908    888
  3112  15    520    500    908    912
  3113  10    487    500    520    496
  3114   9    487    500    520    524
  3115  14    908    500    520    496
  3116  15    908    500    520    524
  3117  16    485    501    525    505
  3118  17    485    501    525    791
  3119  16    398    502    526    506
  3120  17    398    502    526    440
  3121  16    487    503    527    507
  3122  17    487    503    527    657
  3123  17    444    504    528    482
  3124  16    444    504    528    508
  3125  16    751    505    525    501
  3126  17    751    505    525    791
  3127   5    491    751    505    525
  3128   5    764    751    505    525
  3129   6    767    751    505    525
  3130   5    757    751    505    525
  3131  16    488    506    526    502
  3132  17    488    506    526    440
  3133  16    617    507    527    503
  3134  17    617    507    527    657
  3135   5    489    617    507    527
  3136   5    630    617    507    527
  3137   6    633    617    507    527
  3138   5    627    617    507    527
  3139  17    486    508    528    482
  3140  16    486    508    528    504
  3141  10    881    894    510    490
  3142  14    914    894    510    490
  3143   9    881    894    510    514
  3144  15    914    894    510    514
  3145  10    884    895    511    491
  3146  14    915    895    511    491
  3147   9    884    895    511    515
  3148  15    915    895    511    515
  3149  18    501    525    791    767
  3150  18    501    525    791    771
  3151  18    505    525    791    767
  3152  18    505    525    791    771
  3153  18    503    527    657    633
  3154  18    503    527    657    637
  3155  18    507    527    657    633
  3156  18    507    527    657    637
  3157   1    401    529    542    158
  3158   1    401    529    542    562
  3159   3    545    529    542    158
  3160   3    545    529    542    562
  3161   1    539    529    542    158
  3162   1    539    529    542    562
  3163   3    419    529    542    158
  3164   3    419    529    542    562
  3165   5    401    529    545    569
  3166   5    542    529    545    569
  3167   5    539    529    545    569
  3168   6    419    529    545    569
  3169   2    401    529    539    139
  3170   1    401    529    539    563
  3171   2    542    529    539    139
  3172   1    542    529    539    563
  3173   4    545    529    539    139
  3174   3    545    529    539    563
  3175   4    419    529    539    139
  3176   3    419    529    539    563
  3177   1    541    530    534    554
  3178   2    541    530    534    934
  3179   3    634    530    534    554
  3180   4    634    530    534    934
  3181   1    628    530    534    554
  3182   2    628    530    534    934
  3183   3    552    530    534    554
  3184   4    552    530    534    934
  3185   1    534    530    541    949
  3186   1    534    530    541    561
  3187   3    634    530    541    949
  3188   3    634    530    541    561
  3189   1    628    530    541    949
  3190   1    628    530    541    561
  3191   3    552    530    541    949
  3192   3    552    530    541    561
  3193   5    534    530    634    658
  3194   5    541    530    634    658
  3195   5    628    530    634    658
  3196   6    552    530    634    658
  3197   1    534    530    628    652
  3198   2    534    530    628   1020
  3199   1    541    530    628    652
  3200   2    541    530    628   1020
  3201   3    634    530    628    652
  3202   4    634    530    628   1020
  3203   3    552    530    628    652
  3204   4    552    530    628   1020
  3205   5    534    530    552    572
  3206   5    541    530    552    572
  3207   6    634    530    552    572
  3208   5    628    530    552    572
  3209   1    544    531    667    687
  3210   2    544    531    667   1067
  3211   3    547    531    667    687
  3212   4    547    531    667   1067
  3213   1    537    531    667    687
  3214   2    537    531    667   1067
  3215   3    681    531    667    687
  3216   4    681    531    667   1067
  3217   1    667    531    544    952
  3218   1    667    531    544    564
  3219   3    547    531    544    952
  3220   3    547    531    544    564
  3221   1    537    531    544    952
  3222   1    537    531    544    564
  3223   3    681    531    544    952
  3224   3    681    531    544    564
  3225   5    667    531    547    571
  3226   5    544    531    547    571
  3227   5    537    531    547    571
  3228   6    681    531    547    571
  3229   1    667    531    537    561
  3230   2    667    531    537    929
  3231   1    544    531    537    561
  3232   2    544    531    537    929
  3233   3    547    531    537    561
  3234   4    547    531    537    929
  3235   3    681    531    537    561
  3236   4    681    531    537    929
  3237   5    667    531    681    701
  3238   5    544    531    681    701
  3239   6    547    531    681    701
  3240   5    537    531    681    701
  3241   1    543    532    536    556
  3242   2    543    532    536    144
  3243   3    592    532    536    556
  3244   4    592    532    536    144
  3245   1    582    532    536    556
  3246   2    582    532    536    144
  3247   3    550    532    536    556
  3248   4    550    532    536    144
  3249   1    536    532    543    159
  3250   1    536    532    543    563
  3251   3    592    532    543    159
  3252   3    592    532    543    563
  3253   1    582    532    543    159
  3254   1    582    532    543    563
  3255   3    550    532    543    159
  3256   3    550    532    543    563
  3257   5    536    532    592    616
  3258   5    543    532    592    616
  3259   5    582    532    592    616
  3260   6    550    532    592    616
  3261   2    536    532    582    182
  3262   1    536    532    582    606
  3263   2    543    532    582    182
  3264   1    543    532    582    606
  3265   4    592    532    582    182
  3266   3    592    532    582    606
  3267   4    550    532    582    182
  3268   3    550    532    582    606
  3269   5    536    532    550    570
  3270   5    543    532    550    570
  3271   6    592    532    550    570
  3272   5    582    532    550    570
  3273   8    141    533    553    145
  3274   7    141    533    553    557
  3275  10    661    533    553    145
  3276   9    661    533    553    557
  3277   1    674    661    533    553
  3278   3    677    661    533    553
  3279   1    671    661    533    553
  3280   3    551    661    533    553
  3281   2    674    661    533    141
  3282   4    677    661    533    141
  3283   2    671    661    533    141
  3284   4    551    661    533    141
  3285   9    530    534    554    558
  3286  10    530    534    554    938
  3287   7    934    534    554    558
  3288   8    934    534    554    938
  3289  11    530    534    934    958
  3290  13    530    534    934   1016
  3291  12    554    534    934    958
  3292  11   1016    934    534    554
  3293   9    399    535    555    559
  3294  10    399    535    555    939
  3295   7    935    535    555    559
  3296   8    935    535    555    939
  3297  13    399    535    935    925
  3298  11    399    535    935    959
  3299  11    925    935    535    555
  3300  12    555    535    935    959
  3301  10    532    536    556    148
  3302   9    532    536    556    560
  3303   8    144    536    556    148
  3304   7    144    536    556    560
  3305  10    531    537    561    541
  3306   9    531    537    561    565
  3307   8    929    537    561    541
  3308   7    929    537    561    565
  3309  11    531    537    929    949
  3310  13    531    537    929   1057
  3311  12    561    537    929    949
  3312  11   1057    929    537    561
  3313   8    138    538    562    542
  3314   7    138    538    562    566
  3315  10    620    538    562    542
  3316   9    620    538    562    566
  3317   2    624    620    538    138
  3318   2    631    620    538    138
  3319   4    548    620    538    138
  3320   4    638    620    538    138
  3321   1    624    620    538    562
  3322   1    631    620    538    562
  3323   3    548    620    538    562
  3324   3    638    620    538    562
  3325   8    139    539    563    543
  3326   7    139    539    563    567
  3327  10    529    539    563    543
  3328   9    529    539    563    567
  3329  10    574    540    564    544
  3330   9    574    540    564    568
  3331   8    932    540    564    544
  3332   7    932    540    564    568
  3333   1    578    574    540    564
  3334   1    585    574    540    564
  3335   3    546    574    540    564
  3336   3    596    574    540    564
  3337   2    578    574    540    932
  3338   2    585    574    540    932
  3339   4    546    574    540    932
  3340   4    596    574    540    932
  3341  11    928    932    540    564
  3342  12    564    540    932    952
  3343  13    574    540    932    928
  3344  11    574    540    932    952
  3345  10    530    541    949    929
  3346   9    530    541    949    953
  3347  14    561    541    949    929
  3348  15    561    541    949    953
  3349  10    530    541    561    537
  3350   9    530    541    561    565
  3351  14    949    541    561    537
  3352  15    949    541    561    565
  3353  10    529    542    562    538
  3354   9    529    542    562    566
  3355  14    158    542    562    538
  3356  15    158    542    562    566
  3357  10    532    543    563    539
  3358   9    532    543    563    567
  3359  14    159    543    563    539
  3360  15    159    543    563    567
  3361  10    531    544    952    932
  3362   9    531    544    952    956
  3363  14    564    544    952    932
  3364  15    564    544    952    956
  3365  10    531    544    564    540
  3366   9    531    544    564    568
  3367  14    952    544    564    540
  3368  15    952    544    564    568
  3369  16    529    545    569    549
  3370  17    529    545    569    439
  3371  16    574    546    570    550
  3372  17    574    546    570    616
  3373   5    578    574    546    570
  3374   5    585    574    546    570
  3375   5    540    574    546    570
  3376   6    596    574    546    570
  3377  16    531    547    571    551
  3378  17    531    547    571    701
  3379  16    620    548    572    552
  3380  17    620    548    572    658
  3381   5    624    620    548    572
  3382   5    631    620    548    572
  3383   5    538    620    548    572
  3384   6    638    620    548    572
  3385  16    399    549    569    545
  3386  17    399    549    569    439
  3387  16    532    550    570    546
  3388  17    532    550    570    616
  3389  16    661    551    571    547
  3390  17    661    551    571    701
  3391   5    533    661    551    571
  3392   5    674    661    551    571
  3393   6    677    661    551    571
  3394   5    671    661    551    571
  3395  16    530    552    572    548
  3396  17    530    552    572    658
  3397  10    925    938    554    534
  3398  14    958    938    554    534
  3399   9    925    938    554    558
  3400  15    958    938    554    558
  3401  10    928    939    555    535
  3402  14    959    939    555    535
  3403   9    928    939    555    559
  3404  15    959    939    555    559
  3405  18    546    570    616    592
  3406  18    546    570    616    596
  3407  18    550    570    616    592
  3408  18    550    570    616    596
  3409  18    547    571    701    677
  3410  18    547    571    701    681
  3411  18    551    571    701    677
  3412  18    551    571    701    681
  3413  18    548    572    658    634
  3414  18    548    572    658    638
  3415  18    552    572    658    634
  3416  18    552    572    658    638
  3417   1    445    573    586    202
  3418   1    445    573    586    606
  3419   3    589    573    586    202
  3420   3    589    573    586    606
  3421   1    583    573    586    202
  3422   1    583    573    586    606
  3423   3    463    573    586    202
  3424   3    463    573    586    606
  3425   5    445    573    589    613
  3426   5    586    573    589    613
  3427   5    583    573    589    613
  3428   6    463    573    589    613
  3429   2    445    573    583    183
  3430   1    445    573    583    607
  3431   2    586    573    583    183
  3432   1    586    573    583    607
  3433   4    589    573    583    183
  3434   3    589    573    583    607
  3435   4    463    573    583    183
  3436   3    463    573    583    607
  3437   1    585    574    578    598
  3438   2    585    574    578    978
  3439   3    546    574    578    598
  3440   4    546    574    578    978
  3441   1    540    574    578    598
  3442   2    540    574    578    978
  3443   3    596    574    578    598
  3444   4    596    574    578    978
  3445   1    578    574    585    993
  3446   1    578    574    585    605
  3447   3    546    574    585    993
  3448   3    546    574    585    605
  3449   1    540    574    585    993
  3450   1    540    574    585    605
  3451   3    596    574    585    993
  3452   3    596    574    585    605
  3453   5    578    574    596    616
  3454   5    585    574    596    616
  3455   6    546    574    596    616
  3456   5    540    574    596    616
  3457   1    588    575    711    731
  3458   2    588    575    711   1111
  3459   3    591    575    711    731
  3460   4    591    575    711   1111
  3461   1    581    575    711    731
  3462   2    581    575    711   1111
  3463   3    725    575    711    731
  3464   4    725    575    711   1111
  3465   1    711    575    588    996
  3466   1    711    575    588    608
  3467   3    591    575    588    996
  3468   3    591    575    588    608
  3469   1    581    575    588    996
  3470   1    581    575    588    608
  3471   3    725    575    588    996
  3472   3    725    575    588    608
  3473   5    711    575    591    615
  3474   5    588    575    591    615
  3475   5    581    575    591    615
  3476   6    725    575    591    615
  3477   1    711    575    581    605
  3478   2    711    575    581    973
  3479   1    588    575    581    605
  3480   2    588    575    581    973
  3481   3    591    575    581    605
  3482   4    591    575    581    973
  3483   3    725    575    581    605
  3484   4    725    575    581    973
  3485   5    711    575    725    745
  3486   5    588    575    725    745
  3487   6    591    575    725    745
  3488   5    581    575    725    745
  3489   1    587    576    580    600
  3490   2    587    576    580    188
  3491   3    636    576    580    600
  3492   4    636    576    580    188
  3493   1    626    576    580    600
  3494   2    626    576    580    188
  3495   3    594    576    580    600
  3496   4    594    576    580    188
  3497   1    580    576    587    203
  3498   1    580    576    587    607
  3499   3    636    576    587    203
  3500   3    636    576    587    607
  3501   1    626    576    587    203
  3502   1    626    576    587    607
  3503   3    594    576    587    203
  3504   3    594    576    587    607
  3505   5    580    576    636    660
  3506   5    587    576    636    660
  3507   5    626    576    636    660
  3508   6    594    576    636    660
  3509   2    580    576    626    226
  3510   1    580    576    626    650
  3511   2    587    576    626    226
  3512   1    587    576    626    650
  3513   4    636    576    626    226
  3514   3    636    576    626    650
  3515   4    594    576    626    226
  3516   3    594    576    626    650
  3517   5    580    576    594    614
  3518   5    587    576    594    614
  3519   6    636    576    594    614
  3520   5    626    576    594    614
  3521   8    185    577    597    189
  3522   7    185    577    597    601
  3523  10    705    577    597    189
  3524   9    705    577    597    601
  3525   1    718    705    577    597
  3526   3    721    705    577    597
  3527   1    715    705    577    597
  3528   3    595    705    577    597
  3529   2    718    705    577    185
  3530   4    721    705    577    185
  3531   2    715    705    577    185
  3532   4    595    705    577    185
  3533   9    574    578    598    602
  3534  10    574    578    598    982
  3535   7    978    578    598    602
  3536   8    978    578    598    982
  3537  13    574    578    978    928
  3538  11    574    578    978   1002
  3539  11    928    978    578    598
  3540  12    598    578    978   1002
  3541   9    443    579    599    603
  3542  10    443    579    599    983
  3543   7    979    579    599    603
  3544   8    979    579    599    983
  3545  13    443    579    979    969
  3546  11    443    579    979   1003
  3547  11    969    979    579    599
  3548  12    599    579    979   1003
  3549  10    576    580    600    192
  3550   9    576    580    600    604
  3551   8    188    580    600    192
  3552   7    188    580    600    604
  3553  10    575    581    605    585
  3554   9    575    581    605    609
  3555   8    973    581    605    585
  3556   7    973    581    605    609
  3557  11    575    581    973    993
  3558  13    575    581    973   1101
  3559  12    605    581    973    993
  3560  11   1101    973    581    605
  3561   8    182    582    606    586
  3562   7    182    582    606    610
  3563  10    532    582    606    586
  3564   9    532    582    606    610
  3565   8    183    583    607    587
  3566   7    183    583    607    611
  3567  10    573    583    607    587
  3568   9    573    583    607    611
  3569  10    618    584    608    588
  3570   9    618    584    608    612
  3571   8    976    584    608    588
  3572   7    976    584    608    612
  3573   1    622    618    584    608
  3574   1    629    618    584    608
  3575   3    590    618    584    608
  3576   3    640    618    584    608
  3577   2    622    618    584    976
  3578   2    629    618    584    976
  3579   4    590    618    584    976
  3580   4    640    618    584    976
  3581  11    972    976    584    608
  3582  12    608    584    976    996
  3583  13    618    584    976    972
  3584  11    618    584    976    996
  3585  10    574    585    993    973
  3586   9    574    585    993    997
  3587  14    605    585    993    973
  3588  15    605    585    993    997
  3589  10    574    585    605    581
  3590   9    574    585    605    609
  3591  14    993    585    605    581
  3592  15    993    585    605    609
  3593  10    573    586    606    582
  3594   9    573    586    606    610
  3595  14    202    586    606    582
  3596  15    202    586    606    610
  3597  10    576    587    607    583
  3598   9    576    587    607    611
  3599  14    203    587    607    583
  3600  15    203    587    607    611
  3601  10    575    588    996    976
  3602   9    575    588    996   1000
  3603  14    608    588    996    976
  3604  15    608    588    996   1000
  3605  10    575    588    608    584
  3606   9    575    588    608    612
  3607  14    996    588    608    584
  3608  15    996    588    608    612
  3609  16    573    589    613    593
  3610  17    573    589    613    483
  3611  16    618    590    614    594
  3612  17    618    590    614    660
  3613   5    622    618    590    614
  3614   5    629    618    590    614
  3615   5    584    618    590    614
  3616   6    640    618    590    614
  3617  16    575    591    615    595
  3618  17    575    591    615    745
  3619  17    532    592    616    570
  3620  16    532    592    616    596
  3621  16    443    593    613    589
  3622  17    443    593    613    483
  3623  16    576    594    614    590
  3624  17    576    594    614    660
  3625  16    705    595    615    591
  3626  17    705    595    615    745
  3627   5    577    705    595    615
  3628   5    718    705    595    615
  3629   6    721    705    595    615
  3630   5    715    705    595    615
  3631  17    574    596    616    570
  3632  16    574    596    616    592
  3633  10    969    982    598    578
  3634  14   1002    982    598    578
  3635   9    969    982    598    602
  3636  15   1002    982    598    602
  3637  10    972    983    599    579
  3638  14   1003    983    599    579
  3639   9    972    983    599    603
  3640  15   1003    983    599    603
  3641  18    590    614    660    636
  3642  18    590    614    660    640
  3643  18    594    614    660    636
  3644  18    594    614    660    640
  3645  18    591    615    745    721
  3646  18    591    615    745    725
  3647  18    595    615    745    721
  3648  18    595    615    745    725
  3649   1    489    617    630    246
  3650   1    489    617    630    650
  3651   3    633    617    630    246
  3652   3    633    617    630    650
  3653   1    627    617    630    246
  3654   1    627    617    630    650
  3655   3    507    617    630    246
  3656   3    507    617    630    650
  3657   5    489    617    633    657
  3658   5    630    617    633    657
  3659   5    627    617    633    657
  3660   6    507    617    633    657
  3661   2    489    617    627    227
  3662   1    489    617    627    651
  3663   2    630    617    627    227
  3664   1    630    617    627    651
  3665   4    633    617    627    227
  3666   3    633    617    627    651
  3667   4    507    617    627    227
  3668   3    507    617    627    651
  3669   1    629    618    622    642
  3670   2    629    618    622   1022
  3671   3    590    618    622    642
  3672   4    590    618    622   1022
  3673   1    584    618    622    642
  3674   2    584    618    622   1022
  3675   3    640    618    622    642
  3676   4    640    618    622   1022
  3677   1    622    618    629   1037
  3678   1    622    618    629    649
  3679   3    590    618    629   1037
  3680   3    590    618    629    649
  3681   1    584    618    629   1037
  3682   1    584    618    629    649
  3683   3    640    618    629   1037
  3684   3    640    618    629    649
  3685   5    622    618    640    660
  3686   5    629    618    640    660
  3687   6    590    618    640    660
  3688   5    584    618    640    660
  3689   1    632    619    755    775
  3690   2    632    619    755   1155
  3691   3    635    619    755    775
  3692   4    635    619    755   1155
  3693   1    625    619    755    775
  3694   2    625    619    755   1155
  3695   3    769    619    755    775
  3696   4    769    619    755   1155
  3697   1    755    619    632   1040
  3698   1    755    619    632    652
  3699   3    635    619    632   1040
  3700   3    635    619    632    652
  3701   1    625    619    632   1040
  3702   1    625    619    632    652
  3703   3    769    619    632   1040
  3704   3    769    619    632    652
  3705   5    755    619    635    659
  3706   5    632    619    635    659
  3707   5    625    619    635    659
  3708   6    769    619    635    659
  3709   1    755    619    625    649
  3710   2    755    619    625   1017
  3711   1    632    619    625    649
  3712   2    632    619    625   1017
  3713   3    635    619    625    649
  3714   4    635    619    625   1017
  3715   3    769    619    625    649
  3716   4    769    619    625   1017
  3717   5    755    619    769    789
  3718   5    632    619    769    789
  3719   6    635    619    769    789
  3720   5    625    619    769    789
  3721   1    631    620    624    644
  3722   2    631    620    624    232
  3723   3    548    620    624    644
  3724   4    548    620    624    232
  3725   1    538    620    624    644
  3726   2    538    620    624    232
  3727   3    638    620    624    644
  3728   4    638    620    624    232
  3729   1    624    620    631    247
  3730   1    624    620    631    651
  3731   3    548    620    631    247
  3732   3    548    620    631    651
  3733   1    538    620    631    247
  3734   1    538    620    631    651
  3735   3    638    620    631    247
  3736   3    638    620    631    651
  3737   5    624    620    638    658
  3738   5    631    620    638    658
  3739   6    548    620    638    658
  3740   5    538    620    638    658
  3741   8    229    621    641    233
  3742   7    229    621    641    645
  3743  10    749    621    641    233
  3744   9    749    621    641    645
  3745   1    762    749    621    641
  3746   3    765    749    621    641
  3747   1    759    749    621    641
  3748   3    639    749    621    641
  3749   2    762    749    621    229
  3750   4    765    749    621    229
  3751   2    759    749    621    229
  3752   4    639    749    621    229
  3753   9    618    622    642    646
  3754  10    618    622    642   1026
  3755   7   1022    622    642    646
  3756   8   1022    622    642   1026
  3757  13    618    622   1022    972
  3758  11    618    622   1022   1046
  3759  11    972   1022    622    642
  3760  12    642    622   1022   1046
  3761   9    487    623    643    647
  3762  10    487    623    643   1027
  3763   7   1023    623    643    647
  3764   8   1023    623    643   1027
  3765  13    487    623   1023   1013
  3766  11    487    623   1023   1047
  3767  11   1013   1023    623    643
  3768  12    643    623   1023   1047
  3769  10    620    624    644    236
  3770   9    620    624    644    648
  3771   8    232    624    644    236
  3772   7    232    624    644    648
  3773  10    619    625    649    629
  3774   9    619    625    649    653
  3775   8   1017    625    649    629
  3776   7   1017    625    649    653
  3777  11    619    625   1017   1037
  3778  13    619    625   1017   1145
  3779  12    649    625   1017   1037
  3780  11   1145   1017    625    649
  3781   8    226    626    650    630
  3782   7    226    626    650    654
  3783  10    576    626    650    630
  3784   9    576    626    650    654
  3785   8    227    627    651    631
  3786   7    227    627    651    655
  3787  10    617    627    651    631
  3788   9    617    627    651    655
  3789  10    530    628    652    632
  3790   9    530    628    652    656
  3791   8   1020    628    652    632
  3792   7   1020    628    652    656
  3793  13    530    628   1020   1016
  3794  11    530    628   1020   1040
  3795  11   1016   1020    628    652
  3796  12    652    628   1020   1040
  3797  10    618    629   1037   1017
  3798   9    618    629   1037   1041
  3799  14    649    629   1037   1017
  3800  15    649    629   1037   1041
  3801  10    618    629    649    625
  3802   9    618    629    649    653
  3803  14   1037    629    649    625
  3804  15   1037    629    649    653
  3805  10    617    630    650    626
  3806   9    617    630    650    654
  3807  14    246    630    650    626
  3808  15    246    630    650    654
  3809  10    620    631    651    627
  3810   9    620    631    651    655
  3811  14    247    631    651    627
  3812  15    247    631    651    655
  3813  10    619    632   1040   1020
  3814   9    619    632   1040   1044
  3815  14    652    632   1040   1020
  3816  15    652    632   1040   1044
  3817  10    619    632    652    628
  3818   9    619    632    652    656
  3819  14   1040    632    652    628
  3820  15   1040    632    652    656
  3821  16    617    633    657    637
  3822  17    617    633    657    527
  3823  16    530    634    658    638
  3824  17    530    634    658    572
  3825  16    619    635    659    639
  3826  17    619    635    659    789
  3827  17    576    636    660    614
  3828  16    576    636    660    640
  3829  16    487    637    657    633
  3830  17    487    637    657    527
  3831  16    620    638    658    634
  3832  17    620    638    658    572
  3833  16    749    639    659    635
  3834  17    749    639    659    789
  3835   5    621    749    639    659
  3836   5    762    749    639    659
  3837   6    765    749    639    659
  3838   5    759    749    639    659
  3839  17    618    640    660    614
  3840  16    618    640    660    636
  3841  10   1013   1026    642    622
  3842  14   1046   1026    642    622
  3843   9   1013   1026    642    646
  3844  15   1046   1026    642    646
  3845  10   1016   1027    643    623
  3846  14   1047   1027    643    623
  3847   9   1016   1027    643    647
  3848  15   1047   1027    643    647
  3849  18    635    659    789    765
  3850  18    635    659    789    769
  3851  18    639    659    789    765
  3852  18    639    659    789    769
  3853   1    533    661    674    290
  3854   1    533    661    674    694
  3855   3    677    661    674    290
  3856   3    677    661    674    694
  3857   1    671    661    674    290
  3858   1    671    661    674    694
  3859   3    551    661    674    290
  3860   3    551    661    674    694
  3861   5    533    661    677    701
  3862   5    674    661    677    701
  3863   5    671    661    677    701
  3864   6    551    661    677    701
  3865   2    533    661    671    271
  3866   1    533    661    671    695
  3867   2    674    661    671    271
  3868   1    674    661    671    695
  3869   4    677    661    671    271
  3870   3    677    661    671    695
  3871   4    551    661    671    271
  3872   3    551    661    671    695
  3873   1    673    662    666    686
  3874   2    673    662    666   1066
  3875   3    766    662    666    686
  3876   4    766    662    666   1066
  3877   1    760    662    666    686
  3878   2    760    662    666   1066
  3879   3    684    662    666    686
  3880   4    684    662    666   1066
  3881   1    666    662    673   1081
  3882   1    666    662    673    693
  3883   3    766    662    673   1081
  3884   3    766    662    673    693
  3885   1    760    662    673   1081
  3886   1    760    662    673    693
  3887   3    684    662    673   1081
  3888   3    684    662    673    693
  3889   5    666    662    766    790
  3890   5    673    662    766    790
  3891   5    760    662    766    790
  3892   6    684    662    766    790
  3893   1    666    662    760    784
  3894   2    666    662    760   1152
  3895   1    673    662    760    784
  3896   2    673    662    760   1152
  3897   3    766    662    760    784
  3898   4    766    662    760   1152
  3899   3    684    662    760    784
  3900   4    684    662    760   1152
  3901   5    666    662    684    704
  3902   5    673    662    684    704
  3903   6    766    662    684    704
  3904   5    760    662    684    704
  3905   1    403    663    676   1084
  3906   1    403    663    676    696
  3907   3    679    663    676   1084
  3908   3    679    663    676    696
  3909   1    669    663    676   1084
  3910   1    669    663    676    696
  3911   3    417    663    676   1084
  3912   3    417    663    676    696
  3913   5    403    663    679    703
  3914   5    676    663    679    703
  3915   5    669    663    679    703
  3916   6    417    663    679    703
  3917   1    403    663    669    693
  3918   2    403    663    669   1061
  3919   1    676    663    669    693
  3920   2    676    663    669   1061
  3921   3    679    663    669    693
  3922   4    679    663    669   1061
  3923   3    417    663    669    693
  3924   4    417    663    669   1061
  3925   1    675    664    668    688
  3926   2    675    664    668    276
  3927   3    724    664    668    688
  3928   4    724    664    668    276
  3929   1    714    664    668    688
  3930   2    714    664    668    276
  3931   3    682    664    668    688
  3932   4    682    664    668    276
  3933   1    668    664    675    291
  3934   1    668    664    675    695
  3935   3    724    664    675    291
  3936   3    724    664    675    695
  3937   1    714    664    675    291
  3938   1    714    664    675    695
  3939   3    682    664    675    291
  3940   3    682    664    675    695
  3941   5    668    664    724    748
  3942   5    675    664    724    748
  3943   5    714    664    724    748
  3944   6    682    664    724    748
  3945   2    668    664    714    314
  3946   1    668    664    714    738
  3947   2    675    664    714    314
  3948   1    675    664    714    738
  3949   4    724    664    714    314
  3950   3    724    664    714    738
  3951   4    682    664    714    314
  3952   3    682    664    714    738
  3953   5    668    664    682    702
  3954   5    675    664    682    702
  3955   6    724    664    682    702
  3956   5    714    664    682    702
  3957  10    397    665    685    277
  3958   9    397    665    685    689
  3959   8    273    665    685    277
  3960   7    273    665    685    689
  3961   9    662    666    686    690
  3962  10    662    666    686   1070
  3963   7   1066    666    686    690
  3964   8   1066    666    686   1070
  3965  11    662    666   1066   1090
  3966  13    662    666   1066   1148
  3967  12    686    666   1066   1090
  3968  11   1148   1066    666    686
  3969   9    531    667    687    691
  3970  10    531    667    687   1071
  3971   7   1067    667    687    691
  3972   8   1067    667    687   1071
  3973  13    531    667   1067   1057
  3974  11    531    667   1067   1091
  3975  11   1057   1067    667    687
  3976  12    687    667   1067   1091
  3977  10    664    668    688    280
  3978   9    664    668    688    692
  3979   8    276    668    688    280
  3980   7    276    668    688    692
  3981  10    663    669    693    673
  3982   9    663    669    693    697
  3983   8   1061    669    693    673
  3984   7   1061    669    693    697
  3985  13    663    669   1061    793
  3986  11    663    669   1061   1081
  3987  11    793   1061    669    693
  3988  12    693    669   1061   1081
  3989   8    270    670    694    674
  3990   7    270    670    694    698
  3991  10    752    670    694    674
  3992   9    752    670    694    698
  3993   2    756    752    670    270
  3994   2    763    752    670    270
  3995   4    680    752    670    270
  3996   4    770    752    670    270
  3997   1    756    752    670    694
  3998   1    763    752    670    694
  3999   3    680    752    670    694
  4000   3    770    752    670    694
  4001   8    271    671    695    675
  4002   7    271    671    695    699
  4003  10    661    671    695    675
  4004   9    661    671    695    699
  4005  10    706    672    696    676
  4006   9    706    672    696    700
  4007   8   1064    672    696    676
  4008   7   1064    672    696    700
  4009   1    710    706    672    696
  4010   1    717    706    672    696
  4011   3    678    706    672    696
  4012   3    728    706    672    696
  4013   2    710    706    672   1064
  4014   2    717    706    672   1064
  4015   4    678    706    672   1064
  4016   4    728    706    672   1064
  4017  11   1060   1064    672    696
  4018  12    696    672   1064   1084
  4019  13    706    672   1064   1060
  4020  11    706    672   1064   1084
  4021  10    662    673   1081   1061
  4022   9    662    673   1081   1085
  4023  14    693    673   1081   1061
  4024  15    693    673   1081   1085
  4025  10    662    673    693    669
  4026   9    662    673    693    697
  4027  14   1081    673    693    669
  4028  15   1081    673    693    697
  4029  10    661    674    694    670
  4030   9    661    674    694    698
  4031  14    290    674    694    670
  4032  15    290    674    694    698
  4033  10    664    675    695    671
  4034   9    664    675    695    699
  4035  14    291    675    695    671
  4036  15    291    675    695    699
  4037  10    663    676   1084   1064
  4038   9    663    676   1084   1088
  4039  14    696    676   1084   1064
  4040  15    696    676   1084   1088
  4041  10    663    676    696    672
  4042   9    663    676    696    700
  4043  14   1084    676    696    672
  4044  15   1084    676    696    700
  4045  16    661    677    701    681
  4046  17    661    677    701    571
  4047  16    706    678    702    682
  4048  17    706    678    702    748
  4049   5    710    706    678    702
  4050   5    717    706    678    702
  4051   5    672    706    678    702
  4052   6    728    706    678    702
  4053  17    663    679    703    437
  4054  16    663    679    703    683
  4055  16    752    680    704    684
  4056  17    752    680    704    790
  4057   5    756    752    680    704
  4058   5    763    752    680    704
  4059   5    670    752    680    704
  4060   6    770    752    680    704
  4061  16    531    681    701    677
  4062  17    531    681    701    571
  4063  16    664    682    702    678
  4064  17    664    682    702    748
  4065  17    397    683    703    437
  4066  16    397    683    703    679
  4067  16    662    684    704    680
  4068  17    662    684    704    790
  4069  10   1057   1070    686    666
  4070  14   1090   1070    686    666
  4071   9   1057   1070    686    690
  4072  15   1090   1070    686    690
  4073  10   1060   1071    687    667
  4074  14   1091   1071    687    667
  4075   9   1060   1071    687    691
  4076  15   1091   1071    687    691
  4077  18    678    702    748    724
  4078  18    678    702    748    728
  4079  18    682    702    748    724
  4080  18    682    702    748    728
  4081  18    680    704    790    766
  4082  18    680    704    790    770
  4083  18    684    704    790    766
  4084  18    684    704    790    770
  4085   1    577    705    718    334
  4086   1    577    705    718    738
  4087   3    721    705    718    334
  4088   3    721    705    718    738
  4089   1    715    705    718    334
  4090   1    715    705    718    738
  4091   3    595    705    718    334
  4092   3    595    705    718    738
  4093   5    577    705    721    745
  4094   5    718    705    721    745
  4095   5    715    705    721    745
  4096   6    595    705    721    745
  4097   2    577    705    715    315
  4098   1    577    705    715    739
  4099   2    718    705    715    315
  4100   1    718    705    715    739
  4101   4    721    705    715    315
  4102   3    721    705    715    739
  4103   4    595    705    715    315
  4104   3    595    705    715    739
  4105   1    717    706    710    730
  4106   2    717    706    710   1110
  4107   3    678    706    710    730
  4108   4    678    706    710   1110
  4109   1    672    706    710    730
  4110   2    672    706    710   1110
  4111   3    728    706    710    730
  4112   4    728    706    710   1110
  4113   1    710    706    717   1125
  4114   1    710    706    717    737
  4115   3    678    706    717   1125
  4116   3    678    706    717    737
  4117   1    672    706    717   1125
  4118   1    672    706    717    737
  4119   3    728    706    717   1125
  4120   3    728    706    717    737
  4121   5    710    706    728    748
  4122   5    717    706    728    748
  4123   6    678    706    728    748
  4124   5    672    706    728    748
  4125   1    447    707    720   1128
  4126   1    447    707    720    740
  4127   3    723    707    720   1128
  4128   3    723    707    720    740
  4129   1    713    707    720   1128
  4130   1    713    707    720    740
  4131   3    461    707    720   1128
  4132   3    461    707    720    740
  4133   5    447    707    723    747
  4134   5    720    707    723    747
  4135   5    713    707    723    747
  4136   6    461    707    723    747
  4137   1    447    707    713    737
  4138   2    447    707    713   1105
  4139   1    720    707    713    737
  4140   2    720    707    713   1105
  4141   3    723    707    713    737
  4142   4    723    707    713   1105
  4143   3    461    707    713    737
  4144   4    461    707    713   1105
  4145   1    719    708    712    732
  4146   2    719    708    712    320
  4147   3    768    708    712    732
  4148   4    768    708    712    320
  4149   1    758    708    712    732
  4150   2    758    708    712    320
  4151   3    726    708    712    732
  4152   4    726    708    712    320
  4153   1    712    708    719    335
  4154   1    712    708    719    739
  4155   3    768    708    719    335
  4156   3    768    708    719    739
  4157   1    758    708    719    335
  4158   1    758    708    719    739
  4159   3    726    708    719    335
  4160   3    726    708    719    739
  4161   5    712    708    768    792
  4162   5    719    708    768    792
  4163   5    758    708    768    792
  4164   6    726    708    768    792
  4165   2    712    708    758    358
  4166   1    712    708    758    782
  4167   2    719    708    758    358
  4168   1    719    708    758    782
  4169   4    768    708    758    358
  4170   3    768    708    758    782
  4171   4    726    708    758    358
  4172   3    726    708    758    782
  4173   5    712    708    726    746
  4174   5    719    708    726    746
  4175   6    768    708    726    746
  4176   5    758    708    726    746
  4177  10    441    709    729    321
  4178   9    441    709    729    733
  4179   8    317    709    729    321
  4180   7    317    709    729    733
  4181   9    706    710    730    734
  4182  10    706    710    730   1114
  4183   7   1110    710    730    734
  4184   8   1110    710    730   1114
  4185  13    706    710   1110   1060
  4186  11    706    710   1110   1134
  4187  11   1060   1110    710    730
  4188  12    730    710   1110   1134
  4189   9    575    711    731    735
  4190  10    575    711    731   1115
  4191   7   1111    711    731    735
  4192   8   1111    711    731   1115
  4193  13    575    711   1111   1101
  4194  11    575    711   1111   1135
  4195  11   1101   1111    711    731
  4196  12    731    711   1111   1135
  4197  10    708    712    732    324
  4198   9    708    712    732    736
  4199   8    320    712    732    324
  4200   7    320    712    732    736
  4201  10    707    713    737    717
  4202   9    707    713    737    741
  4203   8   1105    713    737    717
  4204   7   1105    713    737    741
  4205  13    707    713   1105    837
  4206  11    707    713   1105   1125
  4207  11    837   1105    713    737
  4208  12    737    713   1105   1125
  4209   8    314    714    738    718
  4210   7    314    714    738    742
  4211  10    664    714    738    718
  4212   9    664    714    738    742
  4213   8    315    715    739    719
  4214   7    315    715    739    743
  4215  10    705    715    739    719
  4216   9    705    715    739    743
  4217  10    750    716    740    720
  4218   9    750    716    740    744
  4219   8   1108    716    740    720
  4220   7   1108    716    740    744
  4221   1    754    750    716    740
  4222   1    761    750    716    740
  4223   3    722    750    716    740
  4224   3    772    750    716    740
  4225   2    754    750    716   1108
  4226   2    761    750    716   1108
  4227   4    722    750    716   1108
  4228   4    772    750    716   1108
  4229  11   1104   1108    716    740
  4230  12    740    716   1108   1128
  4231  13    750    716   1108   1104
  4232  11    750    716   1108   1128
  4233  10    706    717   1125   1105
  4234   9    706    717   1125   1129
  4235  14    737    717   1125   1105
  4236  15    737    717   1125   1129
  4237  10    706    717    737    713
  4238   9    706    717    737    741
  4239  14   1125    717    737    713
  4240  15   1125    717    737    741
  4241  10    705    718    738    714
  4242   9    705    718    738    742
  4243  14    334    718    738    714
  4244  15    334    718    738    742
  4245  10    708    719    739    715
  4246   9    708    719    739    743
  4247  14    335    719    739    715
  4248  15    335    719    739    743
  4249  10    707    720   1128   1108
  4250   9    707    720   1128   1132
  4251  14    740    720   1128   1108
  4252  15    740    720   1128   1132
  4253  10    707    720    740    716
  4254   9    707    720    740    744
  4255  14   1128    720    740    716
  4256  15   1128    720    740    744
  4257  16    705    721    745    725
  4258  17    705    721    745    615
  4259  16    750    722    746    726
  4260  17    750    722    746    792
  4261   5    754    750    722    746
  4262   5    761    750    722    746
  4263   5    716    750    722    746
  4264   6    772    750    722    746
  4265  17    707    723    747    481
  4266  16    707    723    747    727
  4267  17    664    724    748    702
  4268  16    664    724    748    728
  4269  16    575    725    745    721
  4270  17    575    725    745    615
  4271  16    708    726    746    722
  4272  17    708    726    746    792
  4273  17    441    727    747    481
  4274  16    441    727    747    723
  4275  17    706    728    748    702
  4276  16    706    728    748    724
  4277  10   1101   1114    730    710
  4278  14   1134   1114    730    710
  4279   9   1101   1114    730    734
  4280  15   1134   1114    730    734
  4281  10   1104   1115    731    711
  4282  14   1135   1115    731    711
  4283   9   1104   1115    731    735
  4284  15   1135   1115    731    735
  4285  18    722    746    792    768
  4286  18    722    746    792    772
  4287  18    726    746    792    768
  4288  18    726    746    792    772
  4289   1    621    749    762    378
  4290   1    621    749    762    782
  4291   3    765    749    762    378
  4292   3    765    749    762    782
  4293   1    759    749    762    378
  4294   1    759    749    762    782
  4295   3    639    749    762    378
  4296   3    639    749    762    782
  4297   5    621    749    765    789
  4298   5    762    749    765    789
  4299   5    759    749    765    789
  4300   6    639    749    765    789
  4301   2    621    749    759    359
  4302   1    621    749    759    783
  4303   2    762    749    759    359
  4304   1    762    749    759    783
  4305   4    765    749    759    359
  4306   3    765    749    759    783
  4307   4    639    749    759    359
  4308   3    639    749    759    783
  4309   1    761    750    754    774
  4310   2    761    750    754   1154
  4311   3    722    750    754    774
  4312   4    722    750    754   1154
  4313   1    716    750    754    774
  4314   2    716    750    754   1154
  4315   3    772    750    754    774
  4316   4    772    750    754   1154
  4317   1    754    750    761   1169
  4318   1    754    750    761    781
  4319   3    722    750    761   1169
  4320   3    722    750    761    781
  4321   1    716    750    761   1169
  4322   1    716    750    761    781
  4323   3    772    750    761   1169
  4324   3    772    750    761    781
  4325   5    754    750    772    792
  4326   5    761    750    772    792
  4327   6    722    750    772    792
  4328   5    716    750    772    792
  4329   1    491    751    764   1172
  4330   1    491    751    764    784
  4331   3    767    751    764   1172
  4332   3    767    751    764    784
  4333   1    757    751    764   1172
  4334   1    757    751    764    784
  4335   3    505    751    764   1172
  4336   3    505    751    764    784
  4337   5    491    751    767    791
  4338   5    764    751    767    791
  4339   5    757    751    767    791
  4340   6    505    751    767    791
  4341   1    491    751    757    781
  4342   2    491    751    757   1149
  4343   1    764    751    757    781
  4344   2    764    751    757   1149
  4345   3    767    751    757    781
  4346   4    767    751    757   1149
  4347   3    505    751    757    781
  4348   4    505    751    757   1149
  4349   1    763    752    756    776
  4350   2    763    752    756    364
  4351   3    680    752    756    776
  4352   4    680    752    756    364
  4353   1    670    752    756    776
  4354   2    670    752    756    364
  4355   3    770    752    756    776
  4356   4    770    752    756    364
  4357   1    756    752    763    379
  4358   1    756    752    763    783
  4359   3    680    752    763    379
  4360   3    680    752    763    783
  4361   1    670    752    763    379
  4362   1    670    752    763    783
  4363   3    770    752    763    379
  4364   3    770    752    763    783
  4365   5    756    752    770    790
  4366   5    763    752    770    790
  4367   6    680    752    770    790
  4368   5    670    752    770    790
  4369  10    485    753    773    365
  4370   9    485    753    773    777
  4371   8    361    753    773    365
  4372   7    361    753    773    777
  4373   9    750    754    774    778
  4374  10    750    754    774   1158
  4375   7   1154    754    774    778
  4376   8   1154    754    774   1158
  4377  13    750    754   1154   1104
  4378  11    750    754   1154   1178
  4379  11   1104   1154    754    774
  4380  12    774    754   1154   1178
  4381   9    619    755    775    779
  4382  10    619    755    775   1159
  4383   7   1155    755    775    779
  4384   8   1155    755    775   1159
  4385  13    619    755   1155   1145
  4386  11    619    755   1155   1179
  4387  11   1145   1155    755    775
  4388  12    775    755   1155   1179
  4389  10    752    756    776    368
  4390   9    752    756    776    780
  4391   8    364    756    776    368
  4392   7    364    756    776    780
  4393  10    751    757    781    761
  4394   9    751    757    781    785
  4395   8   1149    757    781    761
  4396   7   1149    757    781    785
  4397  13    751    757   1149    881
  4398  11    751    757   1149   1169
  4399  11    881   1149    757    781
  4400  12    781    757   1149   1169
  4401   8    358    758    782    762
  4402   7    358    758    782    786
  4403  10    708    758    782    762
  4404   9    708    758    782    786
  4405   8    359    759    783    763
  4406   7    359    759    783    787
  4407  10    749    759    783    763
  4408   9    749    759    783    787
  4409  10    662    760    784    764
  4410   9    662    760    784    788
  4411   8   1152    760    784    764
  4412   7   1152    760    784    788
  4413  13    662    760   1152   1148
  4414  11    662    760   1152   1172
  4415  11   1148   1152    760    784
  4416  12    784    760   1152   1172
  4417  10    750    761   1169   1149
  4418   9    750    761   1169   1173
  4419  14    781    761   1169   1149
  4420  15    781    761   1169   1173
  4421  10    750    761    781    757
  4422   9    750    761    781    785
  4423  14   1169    761    781    757
  4424  15   1169    761    781    785
  4425  10    749    762    782    758
  4426   9    749    762    782    786
  4427  14    378    762    782    758
  4428  15    378    762    782    786
  4429  10    752    763    783    759
  4430   9    752    763    783    787
  4431  14    379    763    783    759
  4432  15    379    763    783    787
  4433  10    751    764   1172   1152
  4434   9    751    764   1172   1176
  4435  14    784    764   1172   1152
  4436  15    784    764   1172   1176
  4437  10    751    764    784    760
  4438   9    751    764    784    788
  4439  14   1172    764    784    760
  4440  15   1172    764    784    788
  4441  16    749    765    789    769
  4442  17    749    765    789    659
  4443  16    662    766    790    770
  4444  17    662    766    790    704
  4445  17    751    767    791    525
  4446  16    751    767    791    771
  4447  17    708    768    792    746
  4448  16    708    768    792    772
  4449  16    619    769    789    765
  4450  17    619    769    789    659
  4451  16    752    770    790    766
  4452  17    752    770    790    704
  4453  17    485    771    791    525
  4454  16    485    771    791    767
  4455  17    750    772    792    746
  4456  16    750    772    792    768
  4457  10   1145   1158    774    754
  4458  14   1178   1158    774    754
  4459   9   1145   1158    774    778
  4460  15   1178   1158    774    778
  4461  10   1148   1159    775    755
  4462  14   1179   1159    775    755
  4463   9   1148   1159    775    779
  4464  15   1179   1159    775    779
  4465   1    806    793   1061   1081
  4466   2    806    793   1061    669
  4467   3    809    793   1061   1081
  4468   4    809    793   1061    669
  4469   1    803    793   1061   1081
  4470   2    803    793   1061    669
  4471   3   1079    793   1061   1081
  4472   4   1079    793   1061    669
  4473   1   1061    793    806    422
  4474   1   1061    793    806    826
  4475   3    809    793    806    422
  4476   3    809    793    806    826
  4477   1    803    793    806    422
  4478   1    803    793    806    826
  4479   3   1079    793    806    422
  4480   3   1079    793    806    826
  4481   5   1061    793    809    833
  4482   5    806    793    809    833
  4483   5    803    793    809    833
  4484   6   1079    793    809    833
  4485   2   1061    793    803    403
  4486   1   1061    793    803    827
  4487   2    806    793    803    403
  4488   1    806    793    803    827
  4489   4    809    793    803    403
  4490   3    809    793    803    827
  4491   4   1079    793    803    403
  4492   3   1079    793    803    827
  4493   5   1061    793   1079   1099
  4494   5    806    793   1079   1099
  4495   6    809    793   1079   1099
  4496   5    803    793   1079   1099
  4497   1    805    794    798    818
  4498   2    805    794    798     10
  4499   3    898    794    798    818
  4500   4    898    794    798     10
  4501   1    892    794    798    818
  4502   2    892    794    798     10
  4503   3    816    794    798    818
  4504   4    816    794    798     10
  4505   1    798    794    805     25
  4506   1    798    794    805    825
  4507   3    898    794    805     25
  4508   3    898    794    805    825
  4509   1    892    794    805     25
  4510   1    892    794    805    825
  4511   3    816    794    805     25
  4512   3    816    794    805    825
  4513   5    798    794    898    922
  4514   5    805    794    898    922
  4515   5    892    794    898    922
  4516   6    816    794    898    922
  4517   2    798    794    892     96
  4518   1    798    794    892    916
  4519   2    805    794    892     96
  4520   1    805    794    892    916
  4521   4    898    794    892     96
  4522   3    898    794    892    916
  4523   4    816    794    892     96
  4524   3    816    794    892    916
  4525   5    798    794    816    836
  4526   5    805    794    816    836
  4527   6    898    794    816    836
  4528   5    892    794    816    836
  4529   1    808    795    931    951
  4530   2    808    795    931    143
  4531   3    811    795    931    951
  4532   4    811    795    931    143
  4533   1    801    795    931    951
  4534   2    801    795    931    143
  4535   3    945    795    931    951
  4536   4    945    795    931    143
  4537   1    931    795    808     28
  4538   1    931    795    808    828
  4539   3    811    795    808     28
  4540   3    811    795    808    828
  4541   1    801    795    808     28
  4542   1    801    795    808    828
  4543   3    945    795    808     28
  4544   3    945    795    808    828
  4545   5    931    795    811    835
  4546   5    808    795    811    835
  4547   5    801    795    811    835
  4548   6    945    795    811    835
  4549   2    931    795    801      5
  4550   1    931    795    801    825
  4551   2    808    795    801      5
  4552   1    808    795    801    825
  4553   4    811    795    801      5
  4554   3    811    795    801    825
  4555   4    945    795    801      5
  4556   3    945    795    801    825
  4557   5    931    795    945    965
  4558   5    808    795    945    965
  4559   6    811    795    945    965
  4560   5    801    795    945    965
  4561   1    807    796    800    820
  4562   2    807    796    800    408
  4563   3    856    796    800    820
  4564   4    856    796    800    408
  4565   1    846    796    800    820
  4566   2    846    796    800    408
  4567   3    814    796    800    820
  4568   4    814    796    800    408
  4569   1    800    796    807    423
  4570   1    800    796    807    827
  4571   3    856    796    807    423
  4572   3    856    796    807    827
  4573   1    846    796    807    423
  4574   1    846    796    807    827
  4575   3    814    796    807    423
  4576   3    814    796    807    827
  4577   5    800    796    856    880
  4578   5    807    796    856    880
  4579   5    846    796    856    880
  4580   6    814    796    856    880
  4581   2    800    796    846    446
  4582   1    800    796    846    870
  4583   2    807    796    846    446
  4584   1    807    796    846    870
  4585   4    856    796    846    446
  4586   3    856    796    846    870
  4587   4    814    796    846    446
  4588   3    814    796    846    870
  4589   5    800    796    814    834
  4590   5    807    796    814    834
  4591   6    856    796    814    834
  4592   5    846    796    814    834
  4593   8    405    797    817    409
  4594   7    405    797    817    821
  4595  10    925    797    817    409
  4596   9    925    797    817    821
  4597   1    938    925    797    817
  4598   3    941    925    797    817
  4599   1    935    925    797    817
  4600   3    815    925    797    817
  4601   2    938    925    797    405
  4602   4    941    925    797    405
  4603   2    935    925    797    405
  4604   4    815    925    797    405
  4605  10    794    798    818     14
  4606   9    794    798    818    822
  4607   8     10    798    818     14
  4608   7     10    798    818    822
  4609   8     11    799    819     15
  4610   7     11    799    819    823
  4611  10   1059    799    819     15
  4612   9   1059    799    819    823
  4613   1   1072   1059    799    819
  4614   3   1075   1059    799    819
  4615   1   1065   1059    799    819
  4616   3    813   1059    799    819
  4617   2   1072   1059    799     11
  4618   4   1075   1059    799     11
  4619   2   1065   1059    799     11
  4620   4    813   1059    799     11
  4621  10    796    800    820    412
  4622   9    796    800    820    824
  4623   8    408    800    820    412
  4624   7    408    800    820    824
  4625   8      5    801    825    805
  4626   7      5    801    825    829
  4627  10    795    801    825    805
  4628   9    795    801    825    829
  4629   8    402    802    826    806
  4630   7    402    802    826    830
  4631  10    884    802    826    806
  4632   9    884    802    826    830
  4633   2    888    884    802    402
  4634   2    895    884    802    402
  4635   4    812    884    802    402
  4636   4    902    884    802    402
  4637   1    888    884    802    826
  4638   1    895    884    802    826
  4639   3    812    884    802    826
  4640   3    902    884    802    826
  4641   8    403    803    827    807
  4642   7    403    803    827    831
  4643  10    793    803    827    807
  4644   9    793    803    827    831
  4645   8      8    804    828    808
  4646   7      8    804    828    832
  4647  10    838    804    828    808
  4648   9    838    804    828    832
  4649   2    842    838    804      8
  4650   2    849    838    804      8
  4651   4    810    838    804      8
  4652   4    860    838    804      8
  4653   1    842    838    804    828
  4654   1    849    838    804    828
  4655   3    810    838    804    828
  4656   3    860    838    804    828
  4657  10    794    805    825    801
  4658   9    794    805    825    829
  4659  14     25    805    825    801
  4660  15     25    805    825    829
  4661  10    793    806    826    802
  4662   9    793    806    826    830
  4663  14    422    806    826    802
  4664  15    422    806    826    830
  4665  10    796    807    827    803
  4666   9    796    807    827    831
  4667  14    423    807    827    803
  4668  15    423    807    827    831
  4669  10    795    808    828    804
  4670   9    795    808    828    832
  4671  14     28    808    828    804
  4672  15     28    808    828    832
  4673  16    793    809    833    813
  4674  17    793    809    833   1099
  4675  16    838    810    834    814
  4676  17    838    810    834    880
  4677   5    842    838    810    834
  4678   5    849    838    810    834
  4679   5    804    838    810    834
  4680   6    860    838    810    834
  4681  16    795    811    835    815
  4682  17    795    811    835    965
  4683  16    884    812    836    816
  4684  17    884    812    836    922
  4685   5    888    884    812    836
  4686   5    895    884    812    836
  4687   5    802    884    812    836
  4688   6    902    884    812    836
  4689  16   1059    813    833    809
  4690  17   1059    813    833   1099
  4691   5    799   1059    813    833
  4692   5   1072   1059    813    833
  4693   6   1075   1059    813    833
  4694   5   1065   1059    813    833
  4695  16    796    814    834    810
  4696  17    796    814    834    880
  4697  16    925    815    835    811
  4698  17    925    815    835    965
  4699   5    797    925    815    835
  4700   5    938    925    815    835
  4701   6    941    925    815    835
  4702   5    935    925    815    835
  4703  16    794    816    836    812
  4704  17    794    816    836    922
  4705  18    809    833   1099   1075
  4706  18    809    833   1099   1079
  4707  18    813    833   1099   1075
  4708  18    813    833   1099   1079
  4709  18    810    834    880    856
  4710  18    810    834    880    860
  4711  18    814    834    880    856
  4712  18    814    834    880    860
  4713  18    811    835    965    941
  4714  18    811    835    965    945
  4715  18    815    835    965    941
  4716  18    815    835    965    945
  4717  18    812    836    922    898
  4718  18    812    836    922    902
  4719  18    816    836    922    898
  4720  18    816    836    922    902
  4721   1    850    837   1105   1125
  4722   2    850    837   1105    713
  4723   3    853    837   1105   1125
  4724   4    853    837   1105    713
  4725   1    847    837   1105   1125
  4726   2    847    837   1105    713
  4727   3   1123    837   1105   1125
  4728   4   1123    837   1105    713
  4729   1   1105    837    850    466
  4730   1   1105    837    850    870
  4731   3    853    837    850    466
  4732   3    853    837    850    870
  4733   1    847    837    850    466
  4734   1    847    837    850    870
  4735   3   1123    837    850    466
  4736   3   1123    837    850    870
  4737   5   1105    837    853    877
  4738   5    850    837    853    877
  4739   5    847    837    853    877
  4740   6   1123    837    853    877
  4741   2   1105    837    847    447
  4742   1   1105    837    847    871
  4743   2    850    837    847    447
  4744   1    850    837    847    871
  4745   4    853    837    847    447
  4746   3    853    837    847    871
  4747   4   1123    837    847    447
  4748   3   1123    837    847    871
  4749   5   1105    837   1123   1143
  4750   5    850    837   1123   1143
  4751   6    853    837   1123   1143
  4752   5    847    837   1123   1143
  4753   1    849    838    842    862
  4754   2    849    838    842     54
  4755   3    810    838    842    862
  4756   4    810    838    842     54
  4757   1    804    838    842    862
  4758   2    804    838    842     54
  4759   3    860    838    842    862
  4760   4    860    838    842     54
  4761   1    842    838    849     69
  4762   1    842    838    849    869
  4763   3    810    838    849     69
  4764   3    810    838    849    869
  4765   1    804    838    849     69
  4766   1    804    838    849    869
  4767   3    860    838    849     69
  4768   3    860    838    849    869
  4769   5    842    838    860    880
  4770   5    849    838    860    880
  4771   6    810    838    860    880
  4772   5    804    838    860    880
  4773   1    852    839    975    995
  4774   2    852    839    975    187
  4775   3    855    839    975    995
  4776   4    855    839    975    187
  4777   1    845    839    975    995
  4778   2    845    839    975    187
  4779   3    989    839    975    995
  4780   4    989    839    975    187
  4781   1    975    839    852     72
  4782   1    975    839    852    872
  4783   3    855    839    852     72
  4784   3    855    839    852    872
  4785   1    845    839    852     72
  4786   1    845    839    852    872
  4787   3    989    839    852     72
  4788   3    989    839    852    872
  4789   5    975    839    855    879
  4790   5    852    839    855    879
  4791   5    845    839    855    879
  4792   6    989    839    855    879
  4793   2    975    839    845     49
  4794   1    975    839    845    869
  4795   2    852    839    845     49
  4796   1    852    839    845    869
  4797   4    855    839    845     49
  4798   3    855    839    845    869
  4799   4    989    839    845     49
  4800   3    989    839    845    869
  4801   5    975    839    989   1009
  4802   5    852    839    989   1009
  4803   6    855    839    989   1009
  4804   5    845    839    989   1009
  4805   1    851    840    844    864
  4806   2    851    840    844    452
  4807   3    900    840    844    864
  4808   4    900    840    844    452
  4809   1    890    840    844    864
  4810   2    890    840    844    452
  4811   3    858    840    844    864
  4812   4    858    840    844    452
  4813   1    844    840    851    467
  4814   1    844    840    851    871
  4815   3    900    840    851    467
  4816   3    900    840    851    871
  4817   1    890    840    851    467
  4818   1    890    840    851    871
  4819   3    858    840    851    467
  4820   3    858    840    851    871
  4821   5    844    840    900    924
  4822   5    851    840    900    924
  4823   5    890    840    900    924
  4824   6    858    840    900    924
  4825   2    844    840    890    490
  4826   1    844    840    890    914
  4827   2    851    840    890    490
  4828   1    851    840    890    914
  4829   4    900    840    890    490
  4830   3    900    840    890    914
  4831   4    858    840    890    490
  4832   3    858    840    890    914
  4833   5    844    840    858    878
  4834   5    851    840    858    878
  4835   6    900    840    858    878
  4836   5    890    840    858    878
  4837   8    449    841    861    453
  4838   7    449    841    861    865
  4839  10    969    841    861    453
  4840   9    969    841    861    865
  4841   1    982    969    841    861
  4842   3    985    969    841    861
  4843   1    979    969    841    861
  4844   3    859    969    841    861
  4845   2    982    969    841    449
  4846   4    985    969    841    449
  4847   2    979    969    841    449
  4848   4    859    969    841    449
  4849  10    838    842    862     58
  4850   9    838    842    862    866
  4851   8     54    842    862     58
  4852   7     54    842    862    866
  4853   8     55    843    863     59
  4854   7     55    843    863    867
  4855  10   1103    843    863     59
  4856   9   1103    843    863    867
  4857   1   1116   1103    843    863
  4858   3   1119   1103    843    863
  4859   1   1109   1103    843    863
  4860   3    857   1103    843    863
  4861   2   1116   1103    843     55
  4862   4   1119   1103    843     55
  4863   2   1109   1103    843     55
  4864   4    857   1103    843     55
  4865  10    840    844    864    456
  4866   9    840    844    864    868
  4867   8    452    844    864    456
  4868   7    452    844    864    868
  4869   8     49    845    869    849
  4870   7     49    845    869    873
  4871  10    839    845    869    849
  4872   9    839    845    869    873
  4873   8    446    846    870    850
  4874   7    446    846    870    874
  4875  10    796    846    870    850
  4876   9    796    846    870    874
  4877   8    447    847    871    851
  4878   7    447    847    871    875
  4879  10    837    847    871    851
  4880   9    837    847    871    875
  4881   8     52    848    872    852
  4882   7     52    848    872    876
  4883  10    882    848    872    852
  4884   9    882    848    872    876
  4885   2    886    882    848     52
  4886   2    893    882    848     52
  4887   4    854    882    848     52
  4888   4    904    882    848     52
  4889   1    886    882    848    872
  4890   1    893    882    848    872
  4891   3    854    882    848    872
  4892   3    904    882    848    872
  4893  10    838    849    869    845
  4894   9    838    849    869    873
  4895  14     69    849    869    845
  4896  15     69    849    869    873
  4897  10    837    850    870    846
  4898   9    837    850    870    874
  4899  14    466    850    870    846
  4900  15    466    850    870    874
  4901  10    840    851    871    847
  4902   9    840    851    871    875
  4903  14    467    851    871    847
  4904  15    467    851    871    875
  4905  10    839    852    872    848
  4906   9    839    852    872    876
  4907  14     72    852    872    848
  4908  15     72    852    872    876
  4909  16    837    853    877    857
  4910  17    837    853    877   1143
  4911  16    882    854    878    858
  4912  17    882    854    878    924
  4913   5    886    882    854    878
  4914   5    893    882    854    878
  4915   5    848    882    854    878
  4916   6    904    882    854    878
  4917  16    839    855    879    859
  4918  17    839    855    879   1009
  4919  17    796    856    880    834
  4920  16    796    856    880    860
  4921  16   1103    857    877    853
  4922  17   1103    857    877   1143
  4923   5    843   1103    857    877
  4924   5   1116   1103    857    877
  4925   6   1119   1103    857    877
  4926   5   1109   1103    857    877
  4927  16    840    858    878    854
  4928  17    840    858    878    924
  4929  16    969    859    879    855
  4930  17    969    859    879   1009
  4931   5    841    969    859    879
  4932   5    982    969    859    879
  4933   6    985    969    859    879
  4934   5    979    969    859    879
  4935  17    838    860    880    834
  4936  16    838    860    880    856
  4937  18    853    877   1143   1119
  4938  18    853    877   1143   1123
  4939  18    857    877   1143   1119
  4940  18    857    877   1143   1123
  4941  18    854    878    924    900
  4942  18    854    878    924    904
  4943  18    858    878    924    900
  4944  18    858    878    924    904
  4945  18    855    879   1009    985
  4946  18    855    879   1009    989
  4947  18    859    879   1009    985
  4948  18    859    879   1009    989
  4949   1    894    881   1149   1169
  4950   2    894    881   1149    757
  4951   3    897    881   1149   1169
  4952   4    897    881   1149    757
  4953   1    891    881   1149   1169
  4954   2    891    881   1149    757
  4955   3   1167    881   1149   1169
  4956   4   1167    881   1149    757
  4957   1   1149    881    894    510
  4958   1   1149    881    894    914
  4959   3    897    881    894    510
  4960   3    897    881    894    914
  4961   1    891    881    894    510
  4962   1    891    881    894    914
  4963   3   1167    881    894    510
  4964   3   1167    881    894    914
  4965   5   1149    881    897    921
  4966   5    894    881    897    921
  4967   5    891    881    897    921
  4968   6   1167    881    897    921
  4969   2   1149    881    891    491
  4970   1   1149    881    891    915
  4971   2    894    881    891    491
  4972   1    894    881    891    915
  4973   4    897    881    891    491
  4974   3    897    881    891    915
  4975   4   1167    881    891    491
  4976   3   1167    881    891    915
  4977   5   1149    881   1167   1187
  4978   5    894    881   1167   1187
  4979   6    897    881   1167   1187
  4980   5    891    881   1167   1187
  4981   1    893    882    886    906
  4982   2    893    882    886     98
  4983   3    854    882    886    906
  4984   4    854    882    886     98
  4985   1    848    882    886    906
  4986   2    848    882    886     98
  4987   3    904    882    886    906
  4988   4    904    882    886     98
  4989   1    886    882    893    113
  4990   1    886    882    893    913
  4991   3    854    882    893    113
  4992   3    854    882    893    913
  4993   1    848    882    893    113
  4994   1    848    882    893    913
  4995   3    904    882    893    113
  4996   3    904    882    893    913
  4997   5    886    882    904    924
  4998   5    893    882    904    924
  4999   6    854    882    904    924
  5000   5    848    882    904    924
  5001   1    896    883   1019   1039
  5002   2    896    883   1019    231
  5003   3    899    883   1019   1039
  5004   4    899    883   1019    231
  5005   1    889    883   1019   1039
  5006   2    889    883   1019    231
  5007   3   1033    883   1019   1039
  5008   4   1033    883   1019    231
  5009   1   1019    883    896    116
  5010   1   1019    883    896    916
  5011   3    899    883    896    116
  5012   3    899    883    896    916
  5013   1    889    883    896    116
  5014   1    889    883    896    916
  5015   3   1033    883    896    116
  5016   3   1033    883    896    916
  5017   5   1019    883    899    923
  5018   5    896    883    899    923
  5019   5    889    883    899    923
  5020   6   1033    883    899    923
  5021   2   1019    883    889     93
  5022   1   1019    883    889    913
  5023   2    896    883    889     93
  5024   1    896    883    889    913
  5025   4    899    883    889     93
  5026   3    899    883    889    913
  5027   4   1033    883    889     93
  5028   3   1033    883    889    913
  5029   5   1019    883   1033   1053
  5030   5    896    883   1033   1053
  5031   6    899    883   1033   1053
  5032   5    889    883   1033   1053
  5033   1    895    884    888    908
  5034   2    895    884    888    496
  5035   3    812    884    888    908
  5036   4    812    884    888    496
  5037   1    802    884    888    908
  5038   2    802    884    888    496
  5039   3    902    884    888    908
  5040   4    902    884    888    496
  5041   1    888    884    895    511
  5042   1    888    884    895    915
  5043   3    812    884    895    511
  5044   3    812    884    895    915
  5045   1    802    884    895    511
  5046   1    802    884    895    915
  5047   3    902    884    895    511
  5048   3    902    884    895    915
  5049   5    888    884    902    922
  5050   5    895    884    902    922
  5051   6    812    884    902    922
  5052   5    802    884    902    922
  5053   8    493    885    905    497
  5054   7    493    885    905    909
  5055  10   1013    885    905    497
  5056   9   1013    885    905    909
  5057   1   1026   1013    885    905
  5058   3   1029   1013    885    905
  5059   1   1023   1013    885    905
  5060   3    903   1013    885    905
  5061   2   1026   1013    885    493
  5062   4   1029   1013    885    493
  5063   2   1023   1013    885    493
  5064   4    903   1013    885    493
  5065  10    882    886    906    102
  5066   9    882    886    906    910
  5067   8     98    886    906    102
  5068   7     98    886    906    910
  5069   8     99    887    907    103
  5070   7     99    887    907    911
  5071  10   1147    887    907    103
  5072   9   1147    887    907    911
  5073   1   1160   1147    887    907
  5074   3   1163   1147    887    907
  5075   1   1153   1147    887    907
  5076   3    901   1147    887    907
  5077   2   1160   1147    887     99
  5078   4   1163   1147    887     99
  5079   2   1153   1147    887     99
  5080   4    901   1147    887     99
  5081  10    884    888    908    500
  5082   9    884    888    908    912
  5083   8    496    888    908    500
  5084   7    496    888    908    912
  5085   8     93    889    913    893
  5086   7     93    889    913    917
  5087  10    883    889    913    893
  5088   9    883    889    913    917
  5089   8    490    890    914    894
  5090   7    490    890    914    918
  5091  10    840    890    914    894
  5092   9    840    890    914    918
  5093   8    491    891    915    895
  5094   7    491    891    915    919
  5095  10    881    891    915    895
  5096   9    881    891    915    919
  5097   8     96    892    916    896
  5098   7     96    892    916    920
  5099  10    794    892    916    896
  5100   9    794    892    916    920
  5101  10    882    893    913    889
  5102   9    882    893    913    917
  5103  14    113    893    913    889
  5104  15    113    893    913    917
  5105  10    881    894    914    890
  5106   9    881    894    914    918
  5107  14    510    894    914    890
  5108  15    510    894    914    918
  5109  10    884    895    915    891
  5110   9    884    895    915    919
  5111  14    511    895    915    891
  5112  15    511    895    915    919
  5113  10    883    896    916    892
  5114   9    883    896    916    920
  5115  14    116    896    916    892
  5116  15    116    896    916    920
  5117  16    881    897    921    901
  5118  17    881    897    921   1187
  5119  16    794    898    922    902
  5120  17    794    898    922    836
  5121  16    883    899    923    903
  5122  17    883    899    923   1053
  5123  17    840    900    924    878
  5124  16    840    900    924    904
  5125  16   1147    901    921    897
  5126  17   1147    901    921   1187
  5127   5    887   1147    901    921
  5128   5   1160   1147    901    921
  5129   6   1163   1147    901    921
  5130   5   1153   1147    901    921
  5131  16    884    902    922    898
  5132  17    884    902    922    836
  5133  16   1013    903    923    899
  5134  17   1013    903    923   1053
  5135   5    885   1013    903    923
  5136   5   1026   1013    903    923
  5137   6   1029   1013    903    923
  5138   5   1023   1013    903    923
  5139  17    882    904    924    878
  5140  16    882    904    924    900
  5141  18    897    921   1187   1163
  5142  18    897    921   1187   1167
  5143  18    901    921   1187   1163
  5144  18    901    921   1187   1167
  5145  18    899    923   1053   1029
  5146  18    899    923   1053   1033
  5147  18    903    923   1053   1029
  5148  18    903    923   1053   1033
  5149   1    797    925    938    554
  5150   1    797    925    938    958
  5151   3    941    925    938    554
  5152   3    941    925    938    958
  5153   1    935    925    938    554
  5154   1    935    925    938    958
  5155   3    815    925    938    554
  5156   3    815    925    938    958
  5157   5    797    925    941    965
  5158   5    938    925    941    965
  5159   5    935    925    941    965
  5160   6    815    925    941    965
  5161   2    797    925    935    535
  5162   1    797    925    935    959
  5163   2    938    925    935    535
  5164   1    938    925    935    959
  5165   4    941    925    935    535
  5166   3    941    925    935    959
  5167   4    815    925    935    535
  5168   3    815    925    935    959
  5169   1    937    926    930    950
  5170   2    937    926    930    142
  5171   3   1030    926    930    950
  5172   4   1030    926    930    142
  5173   1   1024    926    930    950
  5174   2   1024    926    930    142
  5175   3    948    926    930    950
  5176   4    948    926    930    142
  5177   1    930    926    937    157
  5178   1    930    926    937    957
  5179   3   1030    926    937    157
  5180   3   1030    926    937    957
  5181   1   1024    926    937    157
  5182   1   1024    926    937    957
  5183   3    948    926    937    157
  5184   3    948    926    937    957
  5185   5    930    926   1030   1054
  5186   5    937    926   1030   1054
  5187   5   1024    926   1030   1054
  5188   6    948    926   1030   1054
  5189   2    930    926   1024    228
  5190   1    930    926   1024   1048
  5191   2    937    926   1024    228
  5192   1    937    926   1024   1048
  5193   4   1030    926   1024    228
  5194   3   1030    926   1024   1048
  5195   4    948    926   1024    228
  5196   3    948    926   1024   1048
  5197   5    930    926    948    968
  5198   5    937    926    948    968
  5199   6   1030    926    948    968
  5200   5   1024    926    948    968
  5201   1    940    927   1063   1083
  5202   2    940    927   1063    275
  5203   3    943    927   1063   1083
  5204   4    943    927   1063    275
  5205   1    933    927   1063   1083
  5206   2    933    927   1063    275
  5207   3   1077    927   1063   1083
  5208   4   1077    927   1063    275
  5209   1   1063    927    940    160
  5210   1   1063    927    940    960
  5211   3    943    927    940    160
  5212   3    943    927    940    960
  5213   1    933    927    940    160
  5214   1    933    927    940    960
  5215   3   1077    927    940    160
  5216   3   1077    927    940    960
  5217   5   1063    927    943    967
  5218   5    940    927    943    967
  5219   5    933    927    943    967
  5220   6   1077    927    943    967
  5221   2   1063    927    933    137
  5222   1   1063    927    933    957
  5223   2    940    927    933    137
  5224   1    940    927    933    957
  5225   4    943    927    933    137
  5226   3    943    927    933    957
  5227   4   1077    927    933    137
  5228   3   1077    927    933    957
  5229   5   1063    927   1077   1097
  5230   5    940    927   1077   1097
  5231   6    943    927   1077   1097
  5232   5    933    927   1077   1097
  5233   1    939    928    932    952
  5234   2    939    928    932    540
  5235   3    988    928    932    952
  5236   4    988    928    932    540
  5237   1    978    928    932    952
  5238   2    978    928    932    540
  5239   3    946    928    932    952
  5240   4    946    928    932    540
  5241   1    932    928    939    555
  5242   1    932    928    939    959
  5243   3    988    928    939    555
  5244   3    988    928    939    959
  5245   1    978    928    939    555
  5246   1    978    928    939    959
  5247   3    946    928    939    555
  5248   3    946    928    939    959
  5249   5    932    928    988   1012
  5250   5    939    928    988   1012
  5251   5    978    928    988   1012
  5252   6    946    928    988   1012
  5253   2    932    928    978    578
  5254   1    932    928    978   1002
  5255   2    939    928    978    578
  5256   1    939    928    978   1002
  5257   4    988    928    978    578
  5258   3    988    928    978   1002
  5259   4    946    928    978    578
  5260   3    946    928    978   1002
  5261   5    932    928    946    966
  5262   5    939    928    946    966
  5263   6    988    928    946    966
  5264   5    978    928    946    966
  5265   8    537    929    949    541
  5266   7    537    929    949    953
  5267  10   1057    929    949    541
  5268   9   1057    929    949    953
  5269   1   1070   1057    929    949
  5270   3   1073   1057    929    949
  5271   1   1067   1057    929    949
  5272   3    947   1057    929    949
  5273   2   1070   1057    929    537
  5274   4   1073   1057    929    537
  5275   2   1067   1057    929    537
  5276   4    947   1057    929    537
  5277  10    926    930    950    146
  5278   9    926    930    950    954
  5279   8    142    930    950    146
  5280   7    142    930    950    954
  5281  10    795    931    951    147
  5282   9    795    931    951    955
  5283   8    143    931    951    147
  5284   7    143    931    951    955
  5285  10    928    932    952    544
  5286   9    928    932    952    956
  5287   8    540    932    952    544
  5288   7    540    932    952    956
  5289   8    137    933    957    937
  5290   7    137    933    957    961
  5291  10    927    933    957    937
  5292   9    927    933    957    961
  5293   8    534    934    958    938
  5294   7    534    934    958    962
  5295  10   1016    934    958    938
  5296   9   1016    934    958    962
  5297   2   1020   1016    934    534
  5298   2   1027   1016    934    534
  5299   4    944   1016    934    534
  5300   4   1034   1016    934    534
  5301   1   1020   1016    934    958
  5302   1   1027   1016    934    958
  5303   3    944   1016    934    958
  5304   3   1034   1016    934    958
  5305   8    535    935    959    939
  5306   7    535    935    959    963
  5307  10    925    935    959    939
  5308   9    925    935    959    963
  5309   8    140    936    960    940
  5310   7    140    936    960    964
  5311  10    970    936    960    940
  5312   9    970    936    960    964
  5313   2    974    970    936    140
  5314   2    981    970    936    140
  5315   4    942    970    936    140
  5316   4    992    970    936    140
  5317   1    974    970    936    960
  5318   1    981    970    936    960
  5319   3    942    970    936    960
  5320   3    992    970    936    960
  5321  10    926    937    957    933
  5322   9    926    937    957    961
  5323  14    157    937    957    933
  5324  15    157    937    957    961
  5325  10    925    938    958    934
  5326   9    925    938    958    962
  5327  14    554    938    958    934
  5328  15    554    938    958    962
  5329  10    928    939    959    935
  5330   9    928    939    959    963
  5331  14    555    939    959    935
  5332  15    555    939    959    963
  5333  10    927    940    960    936
  5334   9    927    940    960    964
  5335  14    160    940    960    936
  5336  15    160    940    960    964
  5337  16    925    941    965    945
  5338  17    925    941    965    835
  5339  16    970    942    966    946
  5340  17    970    942    966   1012
  5341   5    974    970    942    966
  5342   5    981    970    942    966
  5343   5    936    970    942    966
  5344   6    992    970    942    966
  5345  16    927    943    967    947
  5346  17    927    943    967   1097
  5347  16   1016    944    968    948
  5348  17   1016    944    968   1054
  5349   5   1020   1016    944    968
  5350   5   1027   1016    944    968
  5351   5    934   1016    944    968
  5352   6   1034   1016    944    968
  5353  16    795    945    965    941
  5354  17    795    945    965    835
  5355  16    928    946    966    942
  5356  17    928    946    966   1012
  5357  16   1057    947    967    943
  5358  17   1057    947    967   1097
  5359   5    929   1057    947    967
  5360   5   1070   1057    947    967
  5361   6   1073   1057    947    967
  5362   5   1067   1057    947    967
  5363  16    926    948    968    944
  5364  17    926    948    968   1054
  5365  18    942    966   1012    988
  5366  18    942    966   1012    992
  5367  18    946    966   1012    988
  5368  18    946    966   1012    992
  5369  18    943    967   1097   1073
  5370  18    943    967   1097   1077
  5371  18    947    967   1097   1073
  5372  18    947    967   1097   1077
  5373  18    944    968   1054   1030
  5374  18    944    968   1054   1034
  5375  18    948    968   1054   1030
  5376  18    948    968   1054   1034
  5377   1    841    969    982    598
  5378   1    841    969    982   1002
  5379   3    985    969    982    598
  5380   3    985    969    982   1002
  5381   1    979    969    982    598
  5382   1    979    969    982   1002
  5383   3    859    969    982    598
  5384   3    859    969    982   1002
  5385   5    841    969    985   1009
  5386   5    982    969    985   1009
  5387   5    979    969    985   1009
  5388   6    859    969    985   1009
  5389   2    841    969    979    579
  5390   1    841    969    979   1003
  5391   2    982    969    979    579
  5392   1    982    969    979   1003
  5393   4    985    969    979    579
  5394   3    985    969    979   1003
  5395   4    859    969    979    579
  5396   3    859    969    979   1003
  5397   1    981    970    974    994
  5398   2    981    970    974    186
  5399   3    942    970    974    994
  5400   4    942    970    974    186
  5401   1    936    970    974    994
  5402   2    936    970    974    186
  5403   3    992    970    974    994
  5404   4    992    970    974    186
  5405   1    974    970    981    201
  5406   1    974    970    981   1001
  5407   3    942    970    981    201
  5408   3    942    970    981   1001
  5409   1    936    970    981    201
  5410   1    936    970    981   1001
  5411   3    992    970    981    201
  5412   3    992    970    981   1001
  5413   5    974    970    992   1012
  5414   5    981    970    992   1012
  5415   6    942    970    992   1012
  5416   5    936    970    992   1012
  5417   1    984    971   1107   1127
  5418   2    984    971   1107    319
  5419   3    987    971   1107   1127
  5420   4    987    971   1107    319
  5421   1    977    971   1107   1127
  5422   2    977    971   1107    319
  5423   3   1121    971   1107   1127
  5424   4   1121    971   1107    319
  5425   1   1107    971    984    204
  5426   1   1107    971    984   1004
  5427   3    987    971    984    204
  5428   3    987    971    984   1004
  5429   1    977    971    984    204
  5430   1    977    971    984   1004
  5431   3   1121    971    984    204
  5432   3   1121    971    984   1004
  5433   5   1107    971    987   1011
  5434   5    984    971    987   1011
  5435   5    977    971    987   1011
  5436   6   1121    971    987   1011
  5437   2   1107    971    977    181
  5438   1   1107    971    977   1001
  5439   2    984    971    977    181
  5440   1    984    971    977   1001
  5441   4    987    971    977    181
  5442   3    987    971    977   1001
  5443   4   1121    971    977    181
  5444   3   1121    971    977   1001
  5445   5   1107    971   1121   1141
  5446   5    984    971   1121   1141
  5447   6    987    971   1121   1141
  5448   5    977    971   1121   1141
  5449   1    983    972    976    996
  5450   2    983    972    976    584
  5451   3   1032    972    976    996
  5452   4   1032    972    976    584
  5453   1   1022    972    976    996
  5454   2   1022    972    976    584
  5455   3    990    972    976    996
  5456   4    990    972    976    584
  5457   1    976    972    983    599
  5458   1    976    972    983   1003
  5459   3   1032    972    983    599
  5460   3   1032    972    983   1003
  5461   1   1022    972    983    599
  5462   1   1022    972    983   1003
  5463   3    990    972    983    599
  5464   3    990    972    983   1003
  5465   5    976    972   1032   1056
  5466   5    983    972   1032   1056
  5467   5   1022    972   1032   1056
  5468   6    990    972   1032   1056
  5469   2    976    972   1022    622
  5470   1    976    972   1022   1046
  5471   2    983    972   1022    622
  5472   1    983    972   1022   1046
  5473   4   1032    972   1022    622
  5474   3   1032    972   1022   1046
  5475   4    990    972   1022    622
  5476   3    990    972   1022   1046
  5477   5    976    972    990   1010
  5478   5    983    972    990   1010
  5479   6   1032    972    990   1010
  5480   5   1022    972    990   1010
  5481   8    581    973    993    585
  5482   7    581    973    993    997
  5483  10   1101    973    993    585
  5484   9   1101    973    993    997
  5485   1   1114   1101    973    993
  5486   3   1117   1101    973    993
  5487   1   1111   1101    973    993
  5488   3    991   1101    973    993
  5489   2   1114   1101    973    581
  5490   4   1117   1101    973    581
  5491   2   1111   1101    973    581
  5492   4    991   1101    973    581
  5493  10    970    974    994    190
  5494   9    970    974    994    998
  5495   8    186    974    994    190
  5496   7    186    974    994    998
  5497  10    839    975    995    191
  5498   9    839    975    995    999
  5499   8    187    975    995    191
  5500   7    187    975    995    999
  5501  10    972    976    996    588
  5502   9    972    976    996   1000
  5503   8    584    976    996    588
  5504   7    584    976    996   1000
  5505   8    181    977   1001    981
  5506   7    181    977   1001   1005
  5507  10    971    977   1001    981
  5508   9    971    977   1001   1005
  5509   8    578    978   1002    982
  5510   7    578    978   1002   1006
  5511  10    928    978   1002    982
  5512   9    928    978   1002   1006
  5513   8    579    979   1003    983
  5514   7    579    979   1003   1007
  5515  10    969    979   1003    983
  5516   9    969    979   1003   1007
  5517   8    184    980   1004    984
  5518   7    184    980   1004   1008
  5519  10   1014    980   1004    984
  5520   9   1014    980   1004   1008
  5521   2   1018   1014    980    184
  5522   2   1025   1014    980    184
  5523   4    986   1014    980    184
  5524   4   1036   1014    980    184
  5525   1   1018   1014    980   1004
  5526   1   1025   1014    980   1004
  5527   3    986   1014    980   1004
  5528   3   1036   1014    980   1004
  5529  10    970    981   1001    977
  5530   9    970    981   1001   1005
  5531  14    201    981   1001    977
  5532  15    201    981   1001   1005
  5533  10    969    982   1002    978
  5534   9    969    982   1002   1006
  5535  14    598    982   1002    978
  5536  15    598    982   1002   1006
  5537  10    972    983   1003    979
  5538   9    972    983   1003   1007
  5539  14    599    983   1003    979
  5540  15    599    983   1003   1007
  5541  10    971    984   1004    980
  5542   9    971    984   1004   1008
  5543  14    204    984   1004    980
  5544  15    204    984   1004   1008
  5545  16    969    985   1009    989
  5546  17    969    985   1009    879
  5547  16   1014    986   1010    990
  5548  17   1014    986   1010   1056
  5549   5   1018   1014    986   1010
  5550   5   1025   1014    986   1010
  5551   5    980   1014    986   1010
  5552   6   1036   1014    986   1010
  5553  16    971    987   1011    991
  5554  17    971    987   1011   1141
  5555  17    928    988   1012    966
  5556  16    928    988   1012    992
  5557  16    839    989   1009    985
  5558  17    839    989   1009    879
  5559  16    972    990   1010    986
  5560  17    972    990   1010   1056
  5561  16   1101    991   1011    987
  5562  17   1101    991   1011   1141
  5563   5    973   1101    991   1011
  5564   5   1114   1101    991   1011
  5565   6   1117   1101    991   1011
  5566   5   1111   1101    991   1011
  5567  17    970    992   1012    966
  5568  16    970    992   1012    988
  5569  18    986   1010   1056   1032
  5570  18    986   1010   1056   1036
  5571  18    990   1010   1056   1032
  5572  18    990   1010   1056   1036
  5573  18    987   1011   1141   1117
  5574  18    987   1011   1141   1121
  5575  18    991   1011   1141   1117
  5576  18    991   1011   1141   1121
  5577   1    885   1013   1026    642
  5578   1    885   1013   1026   1046
  5579   3   1029   1013   1026    642
  5580   3   1029   1013   1026   1046
  5581   1   1023   1013   1026    642
  5582   1   1023   1013   1026   1046
  5583   3    903   1013   1026    642
  5584   3    903   1013   1026   1046
  5585   5    885   1013   1029   1053
  5586   5   1026   1013   1029   1053
  5587   5   1023   1013   1029   1053
  5588   6    903   1013   1029   1053
  5589   2    885   1013   1023    623
  5590   1    885   1013   1023   1047
  5591   2   1026   1013   1023    623
  5592   1   1026   1013   1023   1047
  5593   4   1029   1013   1023    623
  5594   3   1029   1013   1023   1047
  5595   4    903   1013   1023    623
  5596   3    903   1013   1023   1047
  5597   1   1025   1014   1018   1038
  5598   2   1025   1014   1018    230
  5599   3    986   1014   1018   1038
  5600   4    986   1014   1018    230
  5601   1    980   1014   1018   1038
  5602   2    980   1014   1018    230
  5603   3   1036   1014   1018   1038
  5604   4   1036   1014   1018    230
  5605   1   1018   1014   1025    245
  5606   1   1018   1014   1025   1045
  5607   3    986   1014   1025    245
  5608   3    986   1014   1025   1045
  5609   1    980   1014   1025    245
  5610   1    980   1014   1025   1045
  5611   3   1036   1014   1025    245
  5612   3   1036   1014   1025   1045
  5613   5   1018   1014   1036   1056
  5614   5   1025   1014   1036   1056
  5615   6    986   1014   1036   1056
  5616   5    980   1014   1036   1056
  5617   1   1028   1015   1151   1171
  5618   2   1028   1015   1151    363
  5619   3   1031   1015   1151   1171
  5620   4   1031   1015   1151    363
  5621   1   1021   1015   1151   1171
  5622   2   1021   1015   1151    363
  5623   3   1165   1015   1151   1171
  5624   4   1165   1015   1151    363
  5625   1   1151   1015   1028    248
  5626   1   1151   1015   1028   1048
  5627   3   1031   1015   1028    248
  5628   3   1031   1015   1028   1048
  5629   1   1021   1015   1028    248
  5630   1   1021   1015   1028   1048
  5631   3   1165   1015   1028    248
  5632   3   1165   1015   1028   1048
  5633   5   1151   1015   1031   1055
  5634   5   1028   1015   1031   1055
  5635   5   1021   1015   1031   1055
  5636   6   1165   1015   1031   1055
  5637   2   1151   1015   1021    225
  5638   1   1151   1015   1021   1045
  5639   2   1028   1015   1021    225
  5640   1   1028   1015   1021   1045
  5641   4   1031   1015   1021    225
  5642   3   1031   1015   1021   1045
  5643   4   1165   1015   1021    225
  5644   3   1165   1015   1021   1045
  5645   5   1151   1015   1165   1185
  5646   5   1028   1015   1165   1185
  5647   6   1031   1015   1165   1185
  5648   5   1021   1015   1165   1185
  5649   1   1027   1016   1020   1040
  5650   2   1027   1016   1020    628
  5651   3    944   1016   1020   1040
  5652   4    944   1016   1020    628
  5653   1    934   1016   1020   1040
  5654   2    934   1016   1020    628
  5655   3   1034   1016   1020   1040
  5656   4   1034   1016   1020    628
  5657   1   1020   1016   1027    643
  5658   1   1020   1016   1027   1047
  5659   3    944   1016   1027    643
  5660   3    944   1016   1027   1047
  5661   1    934   1016   1027    643
  5662   1    934   1016   1027   1047
  5663   3   1034   1016   1027    643
  5664   3   1034   1016   1027   1047
  5665   5   1020   1016   1034   1054
  5666   5   1027   1016   1034   1054
  5667   6    944   1016   1034   1054
  5668   5    934   1016   1034   1054
  5669   8    625   1017   1037    629
  5670   7    625   1017   1037   1041
  5671  10   1145   1017   1037    629
  5672   9   1145   1017   1037   1041
  5673   1   1158   1145   1017   1037
  5674   3   1161   1145   1017   1037
  5675   1   1155   1145   1017   1037
  5676   3   1035   1145   1017   1037
  5677   2   1158   1145   1017    625
  5678   4   1161   1145   1017    625
  5679   2   1155   1145   1017    625
  5680   4   1035   1145   1017    625
  5681  10   1014   1018   1038    234
  5682   9   1014   1018   1038   1042
  5683   8    230   1018   1038    234
  5684   7    230   1018   1038   1042
  5685  10    883   1019   1039    235
  5686   9    883   1019   1039   1043
  5687   8    231   1019   1039    235
  5688   7    231   1019   1039   1043
  5689  10   1016   1020   1040    632
  5690   9   1016   1020   1040   1044
  5691   8    628   1020   1040    632
  5692   7    628   1020   1040   1044
  5693   8    225   1021   1045   1025
  5694   7    225   1021   1045   1049
  5695  10   1015   1021   1045   1025
  5696   9   1015   1021   1045   1049
  5697   8    622   1022   1046   1026
  5698   7    622   1022   1046   1050
  5699  10    972   1022   1046   1026
  5700   9    972   1022   1046   1050
  5701   8    623   1023   1047   1027
  5702   7    623   1023   1047   1051
  5703  10   1013   1023   1047   1027
  5704   9   1013   1023   1047   1051
  5705   8    228   1024   1048   1028
  5706   7    228   1024   1048   1052
  5707  10    926   1024   1048   1028
  5708   9    926   1024   1048   1052
  5709  10   1014   1025   1045   1021
  5710   9   1014   1025   1045   1049
  5711  14    245   1025   1045   1021
  5712  15    245   1025   1045   1049
  5713  10   1013   1026   1046   1022
  5714   9   1013   1026   1046   1050
  5715  14    642   1026   1046   1022
  5716  15    642   1026   1046   1050
  5717  10   1016   1027   1047   1023
  5718   9   1016   1027   1047   1051
  5719  14    643   1027   1047   1023
  5720  15    643   1027   1047   1051
  5721  10   1015   1028   1048   1024
  5722   9   1015   1028   1048   1052
  5723  14    248   1028   1048   1024
  5724  15    248   1028   1048   1052
  5725  16   1013   1029   1053   1033
  5726  17   1013   1029   1053    923
  5727  16    926   1030   1054   1034
  5728  17    926   1030   1054    968
  5729  16   1015   1031   1055   1035
  5730  17   1015   1031   1055   1185
  5731  17    972   1032   1056   1010
  5732  16    972   1032   1056   1036
  5733  16    883   1033   1053   1029
  5734  17    883   1033   1053    923
  5735  16   1016   1034   1054   1030
  5736  17   1016   1034   1054    968
  5737  16   1145   1035   1055   1031
  5738  17   1145   1035   1055   1185
  5739   5   1017   1145   1035   1055
  5740   5   1158   1145   1035   1055
  5741   6   1161   1145   1035   1055
  5742   5   1155   1145   1035   1055
  5743  17   1014   1036   1056   1010
  5744  16   1014   1036   1056   1032
  5745  18   1031   1055   1185   1161
  5746  18   1031   1055   1185   1165
  5747  18   1035   1055   1185   1161
  5748  18   1035   1055   1185   1165
  5749   1    929   1057   1070    686
  5750   1    929   1057   1070   1090
  5751   3   1073   1057   1070    686
  5752   3   1073   1057   1070   1090
  5753   1   1067   1057   1070    686
  5754   1   1067   1057   1070   1090
  5755   3    947   1057   1070    686
  5756   3    947   1057   1070   1090
  5757   5    929   1057   1073   1097
  5758   5   1070   1057   1073   1097
  5759   5   1067   1057   1073   1097
  5760   6    947   1057   1073   1097
  5761   2    929   1057   1067    667
  5762   1    929   1057   1067   1091
  5763   2   1070   1057   1067    667
  5764   1   1070   1057   1067   1091
  5765   4   1073   1057   1067    667
  5766   3   1073   1057   1067   1091
  5767   4    947   1057   1067    667
  5768   3    947   1057   1067   1091
  5769   1   1069   1058   1062   1082
  5770   2   1069   1058   1062    274
  5771   3   1162   1058   1062   1082
  5772   4   1162   1058   1062    274
  5773   1   1156   1058   1062   1082
  5774   2   1156   1058   1062    274
  5775   3   1080   1058   1062   1082
  5776   4   1080   1058   1062    274
  5777   1   1062   1058   1069    289
  5778   1   1062   1058   1069   1089
  5779   3   1162   1058   1069    289
  5780   3   1162   1058   1069   1089
  5781   1   1156   1058   1069    289
  5782   1   1156   1058   1069   1089
  5783   3   1080   1058   1069    289
  5784   3   1080   1058   1069   1089
  5785   5   1062   1058   1162   1186
  5786   5   1069   1058   1162   1186
  5787   5   1156   1058   1162   1186
  5788   6   1080   1058   1162   1186
  5789   2   1062   1058   1156    360
  5790   1   1062   1058   1156   1180
  5791   2   1069   1058   1156    360
  5792   1   1069   1058   1156   1180
  5793   4   1162   1058   1156    360
  5794   3   1162   1058   1156   1180
  5795   4   1080   1058   1156    360
  5796   3   1080   1058   1156   1180
  5797   5   1062   1058   1080   1100
  5798   5   1069   1058   1080   1100
  5799   6   1162   1058   1080   1100
  5800   5   1156   1058   1080   1100
  5801   1    799   1059   1072    292
  5802   1    799   1059   1072   1092
  5803   3   1075   1059   1072    292
  5804   3   1075   1059   1072   1092
  5805   1   1065   1059   1072    292
  5806   1   1065   1059   1072   1092
  5807   3    813   1059   1072    292
  5808   3    813   1059   1072   1092
  5809   5    799   1059   1075   1099
  5810   5   1072   1059   1075   1099
  5811   5   1065   1059   1075   1099
  5812   6    813   1059   1075   1099
  5813   2    799   1059   1065    269
  5814   1    799   1059   1065   1089
  5815   2   1072   1059   1065    269
  5816   1   1072   1059   1065   1089
  5817   4   1075   1059   1065    269
  5818   3   1075   1059   1065   1089
  5819   4    813   1059   1065    269
  5820   3    813   1059   1065   1089
  5821   1   1071   1060   1064   1084
  5822   2   1071   1060   1064    672
  5823   3   1120   1060   1064   1084
  5824   4   1120   1060   1064    672
  5825   1   1110   1060   1064   1084
  5826   2   1110   1060   1064    672
  5827   3   1078   1060   1064   1084
  5828   4   1078   1060   1064    672
  5829   1   1064   1060   1071    687
  5830   1   1064   1060   1071   1091
  5831   3   1120   1060   1071    687
  5832   3   1120   1060   1071   1091
  5833   1   1110   1060   1071    687
  5834   1   1110   1060   1071   1091
  5835   3   1078   1060   1071    687
  5836   3   1078   1060   1071   1091
  5837   5   1064   1060   1120   1144
  5838   5   1071   1060   1120   1144
  5839   5   1110   1060   1120   1144
  5840   6   1078   1060   1120   1144
  5841   2   1064   1060   1110    710
  5842   1   1064   1060   1110   1134
  5843   2   1071   1060   1110    710
  5844   1   1071   1060   1110   1134
  5845   4   1120   1060   1110    710
  5846   3   1120   1060   1110   1134
  5847   4   1078   1060   1110    710
  5848   3   1078   1060   1110   1134
  5849   5   1064   1060   1078   1098
  5850   5   1071   1060   1078   1098
  5851   6   1120   1060   1078   1098
  5852   5   1110   1060   1078   1098
  5853  10    793   1061   1081    673
  5854   9    793   1061   1081   1085
  5855   8    669   1061   1081    673
  5856   7    669   1061   1081   1085
  5857  10   1058   1062   1082    278
  5858   9   1058   1062   1082   1086
  5859   8    274   1062   1082    278
  5860   7    274   1062   1082   1086
  5861  10    927   1063   1083    279
  5862   9    927   1063   1083   1087
  5863   8    275   1063   1083    279
  5864   7    275   1063   1083   1087
  5865  10   1060   1064   1084    676
  5866   9   1060   1064   1084   1088
  5867   8    672   1064   1084    676
  5868   7    672   1064   1084   1088
  5869   8    269   1065   1089   1069
  5870   7    269   1065   1089   1093
  5871  10   1059   1065   1089   1069
  5872   9   1059   1065   1089   1093
  5873   8    666   1066   1090   1070
  5874   7    666   1066   1090   1094
  5875  10   1148   1066   1090   1070
  5876   9   1148   1066   1090   1094
  5877   2   1152   1148   1066    666
  5878   2   1159   1148   1066    666
  5879   4   1076   1148   1066    666
  5880   4   1166   1148   1066    666
  5881   1   1152   1148   1066   1090
  5882   1   1159   1148   1066   1090
  5883   3   1076   1148   1066   1090
  5884   3   1166   1148   1066   1090
  5885   8    667   1067   1091   1071
  5886   7    667   1067   1091   1095
  5887  10   1057   1067   1091   1071
  5888   9   1057   1067   1091   1095
  5889   8    272   1068   1092   1072
  5890   7    272   1068   1092   1096
  5891  10   1102   1068   1092   1072
  5892   9   1102   1068   1092   1096
  5893   2   1106   1102   1068    272
  5894   2   1113   1102   1068    272
  5895   4   1074   1102   1068    272
  5896   4   1124   1102   1068    272
  5897   1   1106   1102   1068   1092
  5898   1   1113   1102   1068   1092
  5899   3   1074   1102   1068   1092
  5900   3   1124   1102   1068   1092
  5901  10   1058   1069   1089   1065
  5902   9   1058   1069   1089   1093
  5903  14    289   1069   1089   1065
  5904  15    289   1069   1089   1093
  5905  10   1057   1070   1090   1066
  5906   9   1057   1070   1090   1094
  5907  14    686   1070   1090   1066
  5908  15    686   1070   1090   1094
  5909  10   1060   1071   1091   1067
  5910   9   1060   1071   1091   1095
  5911  14    687   1071   1091   1067
  5912  15    687   1071   1091   1095
  5913  10   1059   1072   1092   1068
  5914   9   1059   1072   1092   1096
  5915  14    292   1072   1092   1068
  5916  15    292   1072   1092   1096
  5917  16   1057   1073   1097   1077
  5918  17   1057   1073   1097    967
  5919  16   1102   1074   1098   1078
  5920  17   1102   1074   1098   1144
  5921   5   1106   1102   1074   1098
  5922   5   1113   1102   1074   1098
  5923   5   1068   1102   1074   1098
  5924   6   1124   1102   1074   1098
  5925  17   1059   1075   1099    833
  5926  16   1059   1075   1099   1079
  5927  16   1148   1076   1100   1080
  5928  17   1148   1076   1100   1186
  5929   5   1152   1148   1076   1100
  5930   5   1159   1148   1076   1100
  5931   5   1066   1148   1076   1100
  5932   6   1166   1148   1076   1100
  5933  16    927   1077   1097   1073
  5934  17    927   1077   1097    967
  5935  16   1060   1078   1098   1074
  5936  17   1060   1078   1098   1144
  5937  17    793   1079   1099    833
  5938  16    793   1079   1099   1075
  5939  16   1058   1080   1100   1076
  5940  17   1058   1080   1100   1186
  5941  18   1074   1098   1144   1120
  5942  18   1074   1098   1144   1124
  5943  18   1078   1098   1144   1120
  5944  18   1078   1098   1144   1124
  5945  18   1076   1100   1186   1162
  5946  18   1076   1100   1186   1166
  5947  18   1080   1100   1186   1162
  5948  18   1080   1100   1186   1166
  5949   1    973   1101   1114    730
  5950   1    973   1101   1114   1134
  5951   3   1117   1101   1114    730
  5952   3   1117   1101   1114   1134
  5953   1   1111   1101   1114    730
  5954   1   1111   1101   1114   1134
  5955   3    991   1101   1114    730
  5956   3    991   1101   1114   1134
  5957   5    973   1101   1117   1141
  5958   5   1114   1101   1117   1141
  5959   5   1111   1101   1117   1141
  5960   6    991   1101   1117   1141
  5961   2    973   1101   1111    711
  5962   1    973   1101   1111   1135
  5963   2   1114   1101   1111    711
  5964   1   1114   1101   1111   1135
  5965   4   1117   1101   1111    711
  5966   3   1117   1101   1111   1135
  5967   4    991   1101   1111    711
  5968   3    991   1101   1111   1135
  5969   1   1113   1102   1106   1126
  5970   2   1113   1102   1106    318
  5971   3   1074   1102   1106   1126
  5972   4   1074   1102   1106    318
  5973   1   1068   1102   1106   1126
  5974   2   1068   1102   1106    318
  5975   3   1124   1102   1106   1126
  5976   4   1124   1102   1106    318
  5977   1   1106   1102   1113    333
  5978   1   1106   1102   1113   1133
  5979   3   1074   1102   1113    333
  5980   3   1074   1102   1113   1133
  5981   1   1068   1102   1113    333
  5982   1   1068   1102   1113   1133
  5983   3   1124   1102   1113    333
  5984   3   1124   1102   1113   1133
  5985   5   1106   1102   1124   1144
  5986   5   1113   1102   1124   1144
  5987   6   1074   1102   1124   1144
  5988   5   1068   1102   1124   1144
  5989   1    843   1103   1116    336
  5990   1    843   1103   1116   1136
  5991   3   1119   1103   1116    336
  5992   3   1119   1103   1116   1136
  5993   1   1109   1103   1116    336
  5994   1   1109   1103   1116   1136
  5995   3    857   1103   1116    336
  5996   3    857   1103   1116   1136
  5997   5    843   1103   1119   1143
  5998   5   1116   1103   1119   1143
  5999   5   1109   1103   1119   1143
  6000   6    857   1103   1119   1143
  6001   2    843   1103   1109    313
  6002   1    843   1103   1109   1133
  6003   2   1116   1103   1109    313
  6004   1   1116   1103   1109   1133
  6005   4   1119   1103   1109    313
  6006   3   1119   1103   1109   1133
  6007   4    857   1103   1109    313
  6008   3    857   1103   1109   1133
  6009   1   1115   1104   1108   1128
  6010   2   1115   1104   1108    716
  6011   3   1164   1104   1108   1128
  6012   4   1164   1104   1108    716
  6013   1   1154   1104   1108   1128
  6014   2   1154   1104   1108    716
  6015   3   1122   1104   1108   1128
  6016   4   1122   1104   1108    716
  6017   1   1108   1104   1115    731
  6018   1   1108   1104   1115   1135
  6019   3   1164   1104   1115    731
  6020   3   1164   1104   1115   1135
  6021   1   1154   1104   1115    731
  6022   1   1154   1104   1115   1135
  6023   3   1122   1104   1115    731
  6024   3   1122   1104   1115   1135
  6025   5   1108   1104   1164   1188
  6026   5   1115   1104   1164   1188
  6027   5   1154   1104   1164   1188
  6028   6   1122   1104   1164   1188
  6029   2   1108   1104   1154    754
  6030   1   1108   1104   1154   1178
  6031   2   1115   1104   1154    754
  6032   1   1115   1104   1154   1178
  6033   4   1164   1104   1154    754
  6034   3   1164   1104   1154   1178
  6035   4   1122   1104   1154    754
  6036   3   1122   1104   1154   1178
  6037   5   1108   1104   1122   1142
  6038   5   1115   1104   1122   1142
  6039   6   1164   1104   1122   1142
  6040   5   1154   1104   1122   1142
  6041  10    837   1105   1125    717
  6042   9    837   1105   1125   1129
  6043   8    713   1105   1125    717
  6044   7    713   1105   1125   1129
  6045  10   1102   1106   1126    322
  6046   9   1102   1106   1126   1130
  6047   8    318   1106   1126    322
  6048   7    318   1106   1126   1130
  6049  10    971   1107   1127    323
  6050   9    971   1107   1127   1131
  6051   8    319   1107   1127    323
  6052   7    319   1107   1127   1131
  6053  10   1104   1108   1128    720
  6054   9   1104   1108   1128   1132
  6055   8    716   1108   1128    720
  6056   7    716   1108   1128   1132
  6057   8    313   1109   1133   1113
  6058   7    313   1109   1133   1137
  6059  10   1103   1109   1133   1113
  6060   9   1103   1109   1133   1137
  6061   8    710   1110   1134   1114
  6062   7    710   1110   1134   1138
  6063  10   1060   1110   1134   1114
  6064   9   1060   1110   1134   1138
  6065   8    711   1111   1135   1115
  6066   7    711   1111   1135   1139
  6067  10   1101   1111   1135   1115
  6068   9   1101   1111   1135   1139
  6069   8    316   1112   1136   1116
  6070   7    316   1112   1136   1140
  6071  10   1146   1112   1136   1116
  6072   9   1146   1112   1136   1140
  6073   2   1150   1146   1112    316
  6074   2   1157   1146   1112    316
  6075   4   1118   1146   1112    316
  6076   4   1168   1146   1112    316
  6077   1   1150   1146   1112   1136
  6078   1   1157   1146   1112   1136
  6079   3   1118   1146   1112   1136
  6080   3   1168   1146   1112   1136
  6081  10   1102   1113   1133   1109
  6082   9   1102   1113   1133   1137
  6083  14    333   1113   1133   1109
  6084  15    333   1113   1133   1137
  6085  10   1101   1114   1134   1110
  6086   9   1101   1114   1134   1138
  6087  14    730   1114   1134   1110
  6088  15    730   1114   1134   1138
  6089  10   1104   1115   1135   1111
  6090   9   1104   1115   1135   1139
  6091  14    731   1115   1135   1111
  6092  15    731   1115   1135   1139
  6093  10   1103   1116   1136   1112
  6094   9   1103   1116   1136   1140
  6095  14    336   1116   1136   1112
  6096  15    336   1116   1136   1140
  6097  16   1101   1117   1141   1121
  6098  17   1101   1117   1141   1011
  6099  16   1146   1118   1142   1122
  6100  17   1146   1118   1142   1188
  6101   5   1150   1146   1118   1142
  6102   5   1157   1146   1118   1142
  6103   5   1112   1146   1118   1142
  6104   6   1168   1146   1118   1142
  6105  17   1103   1119   1143    877
  6106  16   1103   1119   1143   1123
  6107  17   1060   1120   1144   1098
  6108  16   1060   1120   1144   1124
  6109  16    971   1121   1141   1117
  6110  17    971   1121   1141   1011
  6111  16   1104   1122   1142   1118
  6112  17   1104   1122   1142   1188
  6113  17    837   1123   1143    877
  6114  16    837   1123   1143   1119
  6115  17   1102   1124   1144   1098
  6116  16   1102   1124   1144   1120
  6117  18   1118   1142   1188   1164
  6118  18   1118   1142   1188   1168
  6119  18   1122   1142   1188   1164
  6120  18   1122   1142   1188   1168
  6121   1   1017   1145   1158    774
  6122   1   1017   1145   1158   1178
  6123   3   1161   1145   1158    774
  6124   3   1161   1145   1158   1178
  6125   1   1155   1145   1158    774
  6126   1   1155   1145   1158   1178
  6127   3   1035   1145   1158    774
  6128   3   1035   1145   1158   1178
  6129   5   1017   1145   1161   1185
  6130   5   1158   1145   1161   1185
  6131   5   1155   1145   1161   1185
  6132   6   1035   1145   1161   1185
  6133   2   1017   1145   1155    755
  6134   1   1017   1145   1155   1179
  6135   2   1158   1145   1155    755
  6136   1   1158   1145   1155   1179
  6137   4   1161   1145   1155    755
  6138   3   1161   1145   1155   1179
  6139   4   1035   1145   1155    755
  6140   3   1035   1145   1155   1179
  6141   1   1157   1146   1150   1170
  6142   2   1157   1146   1150    362
  6143   3   1118   1146   1150   1170
  6144   4   1118   1146   1150    362
  6145   1   1112   1146   1150   1170
  6146   2   1112   1146   1150    362
  6147   3   1168   1146   1150   1170
  6148   4   1168   1146   1150    362
  6149   1   1150   1146   1157    377
  6150   1   1150   1146   1157   1177
  6151   3   1118   1146   1157    377
  6152   3   1118   1146   1157   1177
  6153   1   1112   1146   1157    377
  6154   1   1112   1146   1157   1177
  6155   3   1168   1146   1157    377
  6156   3   1168   1146   1157   1177
  6157   5   1150   1146   1168   1188
  6158   5   1157   1146   1168   1188
  6159   6   1118   1146   1168   1188
  6160   5   1112   1146   1168   1188
  6161   1    887   1147   1160    380
  6162   1    887   1147   1160   1180
  6163   3   1163   1147   1160    380
  6164   3   1163   1147   1160   1180
  6165   1   1153   1147   1160    380
  6166   1   1153   1147   1160   1180
  6167   3    901   1147   1160    380
  6168   3    901   1147   1160   1180
  6169   5    887   1147   1163   1187
  6170   5   1160   1147   1163   1187
  6171   5   1153   1147   1163   1187
  6172   6    901   1147   1163   1187
  6173   2    887   1147   1153    357
  6174   1    887   1147   1153   1177
  6175   2   1160   1147   1153    357
  6176   1   1160   1147   1153   1177
  6177   4   1163   1147   1153    357
  6178   3   1163   1147   1153   1177
  6179   4    901   1147   1153    357
  6180   3    901   1147   1153   1177
  6181   1   1159   1148   1152   1172
  6182   2   1159   1148   1152    760
  6183   3   1076   1148   1152   1172
  6184   4   1076   1148   1152    760
  6185   1   1066   1148   1152   1172
  6186   2   1066   1148   1152    760
  6187   3   1166   1148   1152   1172
  6188   4   1166   1148   1152    760
  6189   1   1152   1148   1159    775
  6190   1   1152   1148   1159   1179
  6191   3   1076   1148   1159    775
  6192   3   1076   1148   1159   1179
  6193   1   1066   1148   1159    775
  6194   1   1066   1148   1159   1179
  6195   3   1166   1148   1159    775
  6196   3   1166   1148   1159   1179
  6197   5   1152   1148   1166   1186
  6198   5   1159   1148   1166   1186
  6199   6   1076   1148   1166   1186
  6200   5   1066   1148   1166   1186
  6201  10    881   1149   1169    761
  6202   9    881   1149   1169   1173
  6203   8    757   1149   1169    761
  6204   7    757   1149   1169   1173
  6205  10   1146   1150   1170    366
  6206   9   1146   1150   1170   1174
  6207   8    362   1150   1170    366
  6208   7    362   1150   1170   1174
  6209  10   1015   1151   1171    367
  6210   9   1015   1151   1171   1175
  6211   8    363   1151   1171    367
  6212   7    363   1151   1171   1175
  6213  10   1148   1152   1172    764
  6214   9   1148   1152   1172   1176
  6215   8    760   1152   1172    764
  6216   7    760   1152   1172   1176
  6217   8    357   1153   1177   1157
  6218   7    357   1153   1177   1181
  6219  10   1147   1153   1177   1157
  6220   9   1147   1153   1177   1181
  6221   8    754   1154   1178   1158
  6222   7    754   1154   1178   1182
  6223  10   1104   1154   1178   1158
  6224   9   1104   1154   1178   1182
  6225   8    755   1155   1179   1159
  6226   7    755   1155   1179   1183
  6227  10   1145   1155   1179   1159
  6228   9   1145   1155   1179   1183
  6229   8    360   1156   1180   1160
  6230   7    360   1156   1180   1184
  6231  10   1058   1156   1180   1160
  6232   9   1058   1156   1180   1184
  6233  10   1146   1157   1177   1153
  6234   9   1146   1157   1177   1181
  6235  14    377   1157   1177   1153
  6236  15    377   1157   1177   1181
  6237  10   1145   1158   1178   1154
  6238   9   1145   1158   1178   1182
  6239  14    774   1158   1178   1154
  6240  15    774   1158   1178   1182
  6241  10   1148   1159   1179   1155
  6242   9   1148   1159   1179   1183
  6243  14    775   1159   1179   1155
  6244  15    775   1159   1179   1183
  6245  10   1147   1160   1180   1156
  6246   9   1147   1160   1180   1184
  6247  14    380   1160   1180   1156
  6248  15    380   1160   1180   1184
  6249  16   1145   1161   1185   1165
  6250  17   1145   1161   1185   1055
  6251  16   1058   1162   1186   1166
  6252  17   1058   1162   1186   1100
  6253  17   1147   1163   1187    921
  6254  16   1147   1163   1187   1167
  6255  17   1104   1164   1188   1142
  6256  16   1104   1164   1188   1168
  6257  16   1015   1165   1185   1161
  6258  17   1015   1165   1185   1055
  6259  16   1148   1166   1186   1162
  6260  17   1148   1166   1186   1100
  6261  17    881   1167   1187    921
  6262  16    881   1167   1187   1163
  6263  17   1146   1168   1188   1142
  6264  16   1146   1168   1188   1164

Impropers

     1   1    133      5    801     25 
     2   1      2      6    406     26 
     3   1    267      7    407     27 
     4   1      4      8    804     28 
     5   1      3      9    401     33 
     6   1     92     10    798     34 
     7   1      1     11    799     35 
     8   1     46     12    404     36 
     9   2     33     13    421      2 
    10   2     34     14    818      1 
    11   2     35     15    819      4 
    12   2     36     16    424      3 
    13   3     29     25      5    805 
    14   3     30     26      6    410 
    15   3     31     27      7    411 
    16   3     32     28      8    808 
    17   3     37     33      9     13 
    18   3     38     34     10     14 
    19   3     39     35     11     15 
    20   3     40     36     12     16 
    21   4    307     41     17     21 
    22   4     88     42     18     22 
    23   4    173     43     19     23 
    24   4    130     44     20     24 
    25   1    177     49    845     69 
    26   1     46     50    450     70 
    27   1    311     51    451     71 
    28   1     48     52    848     72 
    29   1     47     53    445     77 
    30   1      4     54    842     78 
    31   1     45     55    843     79 
    32   1     90     56    448     80 
    33   2     77     57    465     46 
    34   2     78     58    862     45 
    35   2     79     59    863     48 
    36   2     80     60    468     47 
    37   3     73     69     49    849 
    38   3     74     70     50    454 
    39   3     75     71     51    455 
    40   3     76     72     52    852 
    41   3     81     77     53     57 
    42   3     82     78     54     58 
    43   3     83     79     55     59 
    44   3     84     80     56     60 
    45   4    351     85     61     65 
    46   4    132     86     62     66 
    47   4    217     87     63     67 
    48   4     42     88     64     68 
    49   1    221     93    889    113 
    50   1     90     94    494    114 
    51   1    355     95    495    115 
    52   1     92     96    892    116 
    53   1     91     97    489    121 
    54   1     48     98    886    122 
    55   1     89     99    887    123 
    56   1      2    100    492    124 
    57   2    121    101    509     90 
    58   2    122    102    906     89 
    59   2    123    103    907     92 
    60   2    124    104    512     91 
    61   3    117    113     93    893 
    62   3    118    114     94    498 
    63   3    119    115     95    499 
    64   3    120    116     96    896 
    65   3    125    121     97    101 
    66   3    126    122     98    102 
    67   3    127    123     99    103 
    68   3    128    124    100    104 
    69   4    395    129    105    109 
    70   4     44    130    106    110 
    71   4    261    131    107    111 
    72   4     86    132    108    112 
    73   1    265    137    933    157 
    74   1    134    138    538    158 
    75   1      3    139    539    159 
    76   1    136    140    936    160 
    77   1    135    141    533    165 
    78   1    224    142    930    166 
    79   1    133    143    931    167 
    80   1    178    144    536    168 
    81   2    165    145    553    134 
    82   2    166    146    950    133 
    83   2    167    147    951    136 
    84   2    168    148    556    135 
    85   3    161    157    137    937 
    86   3    162    158    138    542 
    87   3    163    159    139    543 
    88   3    164    160    140    940 
    89   3    169    165    141    145 
    90   3    170    166    142    146 
    91   3    171    167    143    147 
    92   3    172    168    144    148 
    93   4     43    173    149    153 
    94   4    220    174    150    154 
    95   4    305    175    151    155 
    96   4    262    176    152    156 
    97   1    309    181    977    201 
    98   1    178    182    582    202 
    99   1     47    183    583    203 
   100   1    180    184    980    204 
   101   1    179    185    577    209 
   102   1    136    186    974    210 
   103   1    177    187    975    211 
   104   1    222    188    580    212 
   105   2    209    189    597    178 
   106   2    210    190    994    177 
   107   2    211    191    995    180 
   108   2    212    192    600    179 
   109   3    205    201    181    981 
   110   3    206    202    182    586 
   111   3    207    203    183    587 
   112   3    208    204    184    984 
   113   3    213    209    185    189 
   114   3    214    210    186    190 
   115   3    215    211    187    191 
   116   3    216    212    188    192 
   117   4     87    217    193    197 
   118   4    264    218    194    198 
   119   4    349    219    195    199 
   120   4    174    220    196    200 
   121   1    353    225   1021    245 
   122   1    222    226    626    246 
   123   1     91    227    627    247 
   124   1    224    228   1024    248 
   125   1    223    229    621    253 
   126   1    180    230   1018    254 
   127   1    221    231   1019    255 
   128   1    134    232    624    256 
   129   2    253    233    641    222 
   130   2    254    234   1038    221 
   131   2    255    235   1039    224 
   132   2    256    236    644    223 
   133   3    249    245    225   1025 
   134   3    250    246    226    630 
   135   3    251    247    227    631 
   136   3    252    248    228   1028 
   137   3    257    253    229    233 
   138   3    258    254    230    234 
   139   3    259    255    231    235 
   140   3    260    256    232    236 
   141   4    131    261    237    241 
   142   4    176    262    238    242 
   143   4    393    263    239    243 
   144   4    218    264    240    244 
   145   1      1    269   1065    289 
   146   1    266    270    670    290 
   147   1    135    271    671    291 
   148   1    268    272   1068    292 
   149   1    267    273    665    297 
   150   1    356    274   1062    298 
   151   1    265    275   1063    299 
   152   1    310    276    668    300 
   153   2    297    277    685    266 
   154   2    298    278   1082    265 
   155   2    299    279   1083    268 
   156   2    300    280    688    267 
   157   3    293    289    269   1069 
   158   3    294    290    270    674 
   159   3    295    291    271    675 
   160   3    296    292    272   1072 
   161   3    301    297    273    277 
   162   3    302    298    274    278 
   163   3    303    299    275    279 
   164   3    304    300    276    280 
   165   4    175    305    281    285 
   166   4    352    306    282    286 
   167   4     41    307    283    287 
   168   4    394    308    284    288 
   169   1     45    313   1109    333 
   170   1    310    314    714    334 
   171   1    179    315    715    335 
   172   1    312    316   1112    336 
   173   1    311    317    709    341 
   174   1    268    318   1106    342 
   175   1    309    319   1107    343 
   176   1    354    320    712    344 
   177   2    341    321    729    310 
   178   2    342    322   1126    309 
   179   2    343    323   1127    312 
   180   2    344    324    732    311 
   181   3    337    333    313   1113 
   182   3    338    334    314    718 
   183   3    339    335    315    719 
   184   3    340    336    316   1116 
   185   3    345    341    317    321 
   186   3    346    342    318    322 
   187   3    347    343    319    323 
   188   3    348    344    320    324 
   189   4    219    349    325    329 
   190   4    396    350    326    330 
   191   4     85    351    327    331 
   192   4    306    352    328    332 
   193   1     89    357   1153    377 
   194   1    354    358    758    378 
   195   1    223    359    759    379 
   196   1    356    360   1156    380 
   197   1    355    361    753    385 
   198   1    312    362   1150    386 
   199   1    353    363   1151    387 
   200   1    266    364    756    388 
   201   2    385    365    773    354 
   202   2    386    366   1170    353 
   203   2    387    367   1171    356 
   204   2    388    368    776    355 
   205   3    381    377    357   1157 
   206   3    382    378    358    762 
   207   3    383    379    359    763 
   208   3    384    380    360   1160 
   209   3    389    385    361    365 
   210   3    390    386    362    366 
   211   3    391    387    363    367 
   212   3    392    388    364    368 
   213   4    263    393    369    373 
   214   4    308    394    370    374 
   215   4    129    395    371    375 
   216   4    350    396    372    376 
   217   1    529    401      9    421 
   218   1    398    402    802    422 
   219   1    663    403    803    423 
   220   1    400    404     12    424 
   221   1    399    405    797    429 
   222   1    488    406      6    430 
   223   1    397    407      7    431 
   224   1    442    408    800    432 
   225   2    429    409    817    398 
   226   2    430    410     26    397 
   227   2    431    411     27    400 
   228   2    432    412    820    399 
   229   3    425    421     13    401 
   230   3    426    422    402    806 
   231   3    427    423    403    807 
   232   3    428    424     16    404 
   233   3    433    429    405    409 
   234   3    434    430    406    410 
   235   3    435    431    407    411 
   236   3    436    432    408    412 
   237   4    703    437    413    417 
   238   4    484    438    414    418 
   239   4    569    439    415    419 
   240   4    526    440    416    420 
   241   1    573    445     53    465 
   242   1    442    446    846    466 
   243   1    707    447    847    467 
   244   1    444    448     56    468 
   245   1    443    449    841    473 
   246   1    400    450     50    474 
   247   1    441    451     51    475 
   248   1    486    452    844    476 
   249   2    473    453    861    442 
   250   2    474    454     70    441 
   251   2    475    455     71    444 
   252   2    476    456    864    443 
   253   3    469    465     57    445 
   254   3    470    466    446    850 
   255   3    471    467    447    851 
   256   3    472    468     60    448 
   257   3    477    473    449    453 
   258   3    478    474    450    454 
   259   3    479    475    451    455 
   260   3    480    476    452    456 
   261   4    747    481    457    461 
   262   4    528    482    458    462 
   263   4    613    483    459    463 
   264   4    438    484    460    464 
   265   1    617    489     97    509 
   266   1    486    490    890    510 
   267   1    751    491    891    511 
   268   1    488    492    100    512 
   269   1    487    493    885    517 
   270   1    444    494     94    518 
   271   1    485    495     95    519 
   272   1    398    496    888    520 
   273   2    517    497    905    486 
   274   2    518    498    114    485 
   275   2    519    499    115    488 
   276   2    520    500    908    487 
   277   3    513    509    101    489 
   278   3    514    510    490    894 
   279   3    515    511    491    895 
   280   3    516    512    104    492 
   281   3    521    517    493    497 
   282   3    522    518    494    498 
   283   3    523    519    495    499 
   284   3    524    520    496    500 
   285   4    791    525    501    505 
   286   4    440    526    502    506 
   287   4    657    527    503    507 
   288   4    482    528    504    508 
   289   1    661    533    141    553 
   290   1    530    534    934    554 
   291   1    399    535    935    555 
   292   1    532    536    144    556 
   293   1    531    537    929    561 
   294   1    620    538    138    562 
   295   1    529    539    139    563 
   296   1    574    540    932    564 
   297   2    561    541    949    530 
   298   2    562    542    158    529 
   299   2    563    543    159    532 
   300   2    564    544    952    531 
   301   3    557    553    145    533 
   302   3    558    554    534    938 
   303   3    559    555    535    939 
   304   3    560    556    148    536 
   305   3    565    561    537    541 
   306   3    566    562    538    542 
   307   3    567    563    539    543 
   308   3    568    564    540    544 
   309   4    439    569    545    549 
   310   4    616    570    546    550 
   311   4    701    571    547    551 
   312   4    658    572    548    552 
   313   1    705    577    185    597 
   314   1    574    578    978    598 
   315   1    443    579    979    599 
   316   1    576    580    188    600 
   317   1    575    581    973    605 
   318   1    532    582    182    606 
   319   1    573    583    183    607 
   320   1    618    584    976    608 
   321   2    605    585    993    574 
   322   2    606    586    202    573 
   323   2    607    587    203    576 
   324   2    608    588    996    575 
   325   3    601    597    189    577 
   326   3    602    598    578    982 
   327   3    603    599    579    983 
   328   3    604    600    192    580 
   329   3    609    605    581    585 
   330   3    610    606    582    586 
   331   3    611    607    583    587 
   332   3    612    608    584    588 
   333   4    483    613    589    593 
   334   4    660    614    590    594 
   335   4    745    615    591    595 
   336   4    570    616    592    596 
   337   1    749    621    229    641 
   338   1    618    622   1022    642 
   339   1    487    623   1023    643 
   340   1    620    624    232    644 
   341   1    619    625   1017    649 
   342   1    576    626    226    650 
   343   1    617    627    227    651 
   344   1    530    628   1020    652 
   345   2    649    629   1037    618 
   346   2    650    630    246    617 
   347   2    651    631    247    620 
   348   2    652    632   1040    619 
   349   3    645    641    233    621 
   350   3    646    642    622   1026 
   351   3    647    643    623   1027 
   352   3    648    644    236    624 
   353   3    653    649    625    629 
   354   3    654    650    626    630 
   355   3    655    651    627    631 
   356   3    656    652    628    632 
   357   4    527    657    633    637 
   358   4    572    658    634    638 
   359   4    789    659    635    639 
   360   4    614    660    636    640 
   361   1    397    665    273    685 
   362   1    662    666   1066    686 
   363   1    531    667   1067    687 
   364   1    664    668    276    688 
   365   1    663    669   1061    693 
   366   1    752    670    270    694 
   367   1    661    671    271    695 
   368   1    706    672   1064    696 
   369   2    693    673   1081    662 
   370   2    694    674    290    661 
   371   2    695    675    291    664 
   372   2    696    676   1084    663 
   373   3    689    685    277    665 
   374   3    690    686    666   1070 
   375   3    691    687    667   1071 
   376   3    692    688    280    668 
   377   3    697    693    669    673 
   378   3    698    694    670    674 
   379   3    699    695    671    675 
   380   3    700    696    672    676 
   381   4    571    701    677    681 
   382   4    748    702    678    682 
   383   4    437    703    679    683 
   384   4    790    704    680    684 
   385   1    441    709    317    729 
   386   1    706    710   1110    730 
   387   1    575    711   1111    731 
   388   1    708    712    320    732 
   389   1    707    713   1105    737 
   390   1    664    714    314    738 
   391   1    705    715    315    739 
   392   1    750    716   1108    740 
   393   2    737    717   1125    706 
   394   2    738    718    334    705 
   395   2    739    719    335    708 
   396   2    740    720   1128    707 
   397   3    733    729    321    709 
   398   3    734    730    710   1114 
   399   3    735    731    711   1115 
   400   3    736    732    324    712 
   401   3    741    737    713    717 
   402   3    742    738    714    718 
   403   3    743    739    715    719 
   404   3    744    740    716    720 
   405   4    615    745    721    725 
   406   4    792    746    722    726 
   407   4    481    747    723    727 
   408   4    702    748    724    728 
   409   1    485    753    361    773 
   410   1    750    754   1154    774 
   411   1    619    755   1155    775 
   412   1    752    756    364    776 
   413   1    751    757   1149    781 
   414   1    708    758    358    782 
   415   1    749    759    359    783 
   416   1    662    760   1152    784 
   417   2    781    761   1169    750 
   418   2    782    762    378    749 
   419   2    783    763    379    752 
   420   2    784    764   1172    751 
   421   3    777    773    365    753 
   422   3    778    774    754   1158 
   423   3    779    775    755   1159 
   424   3    780    776    368    756 
   425   3    785    781    757    761 
   426   3    786    782    758    762 
   427   3    787    783    759    763 
   428   3    788    784    760    764 
   429   4    659    789    765    769 
   430   4    704    790    766    770 
   431   4    525    791    767    771 
   432   4    746    792    768    772 
   433   1    925    797    405    817 
   434   1    794    798     10    818 
   435   1   1059    799     11    819 
   436   1    796    800    408    820 
   437   1    795    801      5    825 
   438   1    884    802    402    826 
   439   1    793    803    403    827 
   440   1    838    804      8    828 
   441   2    825    805     25    794 
   442   2    826    806    422    793 
   443   2    827    807    423    796 
   444   2    828    808     28    795 
   445   3    821    817    409    797 
   446   3    822    818     14    798 
   447   3    823    819     15    799 
   448   3    824    820    412    800 
   449   3    829    825    801    805 
   450   3    830    826    802    806 
   451   3    831    827    803    807 
   452   3    832    828    804    808 
   453   4   1099    833    809    813 
   454   4    880    834    810    814 
   455   4    965    835    811    815 
   456   4    922    836    812    816 
   457   1    969    841    449    861 
   458   1    838    842     54    862 
   459   1   1103    843     55    863 
   460   1    840    844    452    864 
   461   1    839    845     49    869 
   462   1    796    846    446    870 
   463   1    837    847    447    871 
   464   1    882    848     52    872 
   465   2    869    849     69    838 
   466   2    870    850    466    837 
   467   2    871    851    467    840 
   468   2    872    852     72    839 
   469   3    865    861    453    841 
   470   3    866    862     58    842 
   471   3    867    863     59    843 
   472   3    868    864    456    844 
   473   3    873    869    845    849 
   474   3    874    870    846    850 
   475   3    875    871    847    851 
   476   3    876    872    848    852 
   477   4   1143    877    853    857 
   478   4    924    878    854    858 
   479   4   1009    879    855    859 
   480   4    834    880    856    860 
   481   1   1013    885    493    905 
   482   1    882    886     98    906 
   483   1   1147    887     99    907 
   484   1    884    888    496    908 
   485   1    883    889     93    913 
   486   1    840    890    490    914 
   487   1    881    891    491    915 
   488   1    794    892     96    916 
   489   2    913    893    113    882 
   490   2    914    894    510    881 
   491   2    915    895    511    884 
   492   2    916    896    116    883 
   493   3    909    905    497    885 
   494   3    910    906    102    886 
   495   3    911    907    103    887 
   496   3    912    908    500    888 
   497   3    917    913    889    893 
   498   3    918    914    890    894 
   499   3    919    915    891    895 
   500   3    920    916    892    896 
   501   4   1187    921    897    901 
   502   4    836    922    898    902 
   503   4   1053    923    899    903 
   504   4    878    924    900    904 
   505   1   1057    929    537    949 
   506   1    926    930    142    950 
   507   1    795    931    143    951 
   508   1    928    932    540    952 
   509   1    927    933    137    957 
   510   1   1016    934    534    958 
   511   1    925    935    535    959 
   512   1    970    936    140    960 
   513   2    957    937    157    926 
   514   2    958    938    554    925 
   515   2    959    939    555    928 
   516   2    960    940    160    927 
   517   3    953    949    541    929 
   518   3    954    950    146    930 
   519   3    955    951    147    931 
   520   3    956    952    544    932 
   521   3    961    957    933    937 
   522   3    962    958    934    938 
   523   3    963    959    935    939 
   524   3    964    960    936    940 
   525   4    835    965    941    945 
   526   4   1012    966    942    946 
   527   4   1097    967    943    947 
   528   4   1054    968    944    948 
   529   1   1101    973    581    993 
   530   1    970    974    186    994 
   531   1    839    975    187    995 
   532   1    972    976    584    996 
   533   1    971    977    181   1001 
   534   1    928    978    578   1002 
   535   1    969    979    579   1003 
   536   1   1014    980    184   1004 
   537   2   1001    981    201    970 
   538   2   1002    982    598    969 
   539   2   1003    983    599    972 
   540   2   1004    984    204    971 
   541   3    997    993    585    973 
   542   3    998    994    190    974 
   543   3    999    995    191    975 
   544   3   1000    996    588    976 
   545   3   1005   1001    977    981 
   546   3   1006   1002    978    982 
   547   3   1007   1003    979    983 
   548   3   1008   1004    980    984 
   549   4    879   1009    985    989 
   550   4   1056   1010    986    990 
   551   4   1141   1011    987    991 
   552   4    966   1012    988    992 
   553   1   1145   1017    625   1037 
   554   1   1014   1018    230   1038 
   555   1    883   1019    231   1039 
   556   1   1016   1020    628   1040 
   557   1   1015   1021    225   1045 
   558   1    972   1022    622   1046 
   559   1   1013   1023    623   1047 
   560   1    926   1024    228   1048 
   561   2   1045   1025    245   1014 
   562   2   1046   1026    642   1013 
   563   2   1047   1027    643   1016 
   564   2   1048   1028    248   1015 
   565   3   1041   1037    629   1017 
   566   3   1042   1038    234   1018 
   567   3   1043   1039    235   1019 
   568   3   1044   1040    632   1020 
   569   3   1049   1045   1021   1025 
   570   3   1050   1046   1022   1026 
   571   3   1051   1047   1023   1027 
   572   3   1052   1048   1024   1028 
   573   4    923   1053   1029   1033 
   574   4    968   1054   1030   1034 
   575   4   1185   1055   1031   1035 
   576   4   1010   1056   1032   1036 
   577   1    793   1061    669   1081 
   578   1   1058   1062    274   1082 
   579   1    927   1063    275   1083 
   580   1   1060   1064    672   1084 
   581   1   1059   1065    269   1089 
   582   1   1148   1066    666   1090 
   583   1   1057   1067    667   1091 
   584   1   1102   1068    272   1092 
   585   2   1089   1069    289   1058 
   586   2   1090   1070    686   1057 
   587   2   1091   1071    687   1060 
   588   2   1092   1072    292   1059 
   589   3   1085   1081    673   1061 
   590   3   1086   1082    278   1062 
   591   3   1087   1083    279   1063 
   592   3   1088   1084    676   1064 
   593   3   1093   1089   1065   1069 
   594   3   1094   1090   1066   1070 
   595   3   1095   1091   1067   1071 
   596   3   1096   1092   1068   1072 
   597   4    967   1097   1073   1077 
   598   4   1144   1098   1074   1078 
   599   4    833   1099   1075   1079 
   600   4   1186   1100   1076   1080 
   601   1    837   1105    713   1125 
   602   1   1102   1106    318   1126 
   603   1    971   1107    319   1127 
   604   1   1104   1108    716   1128 
   605   1   1103   1109    313   1133 
   606   1   1060   1110    710   1134 
   607   1   1101   1111    711   1135 
   608   1   1146   1112    316   1136 
   609   2   1133   1113    333   1102 
   610   2   1134   1114    730   1101 
   611   2   1135   1115    731   1104 
   612   2   1136   1116    336   1103 
   613   3   1129   1125    717   1105 
   614   3   1130   1126    322   1106 
   615   3   1131   1127    323   1107 
   616   3   1132   1128    720   1108 
   617   3   1137   1133   1109   1113 
   618   3   1138   1134   1110   1114 
   619   3   1139   1135   1111   1115 
   620   3   1140   1136   1112   1116 
   621   4   1011   1141   1117   1121 
   622   4   1188   1142   1118   1122 
   623   4    877   1143   1119   1123 
   624   4   1098   1144   1120   1124 
   625   1    881   1149    757   1169 
   626   1   1146   1150    362   1170 
   627   1   1015   1151    363   1171 
   628   1   1148   1152    760   1172 
   629   1   1147   1153    357   1177 
   630   1   1104   1154    754   1178 
   631   1   1145   1155    755   1179 
   632   1   1058   1156    360   1180 
   633   2   1177   1157    377   1146 
   634   2   1178   1158    774   1145 
   635   2   1179   1159    775   1148 
   636   2   1180   1160    380   1147 
   637   3   1173   1169    761   1149 
   638   3   1174   1170    366   1150 
   639   3   1175   1171    367   1151 
   640   3   1176   1172    764   1152 
   641   3   1181   1177   1153   1157 
   642   3   1182   1178   1154   1158 
   643   3   1183   1179   1155   1159 
   644   3   1184   1180   1156   1160 
   645   4   1055   1185   1161   1165 
   646   4   1100   1186   1162   1166 
   647   4    921   1187   1163   1167 
   648   4   1142   1188   1164   1168 

