LAMMPS (22 Jul 2025 - Update 2)
OMP_NUM_THREADS environment is not set. Defaulting to 1 thread.
  using 1 OpenMP thread(s) per MPI task
# LAMMPS INPUT SCRIPT
# -----------------------------
# CALF-20 (3x3x3) + 27 CO2
# Rigid framework, CO2 diffusion (MSD)
# Self-diffusion coefficient D extraction
# -----------------------------

# ---- Simulation Parameters
variable        DATA       string calf20_333_co2_27.data
variable        T          equal  298.0         # Temperature (K)
variable        DT         equal  1.0           # Timestep (fs)
variable        LJ_CUT     equal  12.0          # LJ cutoff (Angstrom)
variable        COUL_CUT   equal  12.0          # Coulomb cutoff (Angstrom)
variable        PPPM_ACC   equal  1.0e-5        # PPPM accuracy
variable        SEED       equal  12345         # Random seed

# Run lengths (steps)
variable        MIN_STEPS  equal  5000          # Max minimization steps
variable        EQ_STEPS   equal  50000         # 50 ps equilibration
variable        PR_STEPS   equal  1000000       # 1 ns production

# Output frequencies
variable        THERMO_N   equal  500           # Thermo output every 0.5 ps
variable        DUMP_N     equal  1000          # Trajectory dump every 1 ps
variable        MSD_N      equal  100           # MSD output every 0.1 ps

# ---- Initialization
units           real
atom_style      full
dimension       3
boundary        p p p

# ---- Force Field Styles (MUST be declared BEFORE read_data)
pair_style      lj/cut/coul/long ${LJ_CUT} ${COUL_CUT}
pair_style      lj/cut/coul/long 12 ${COUL_CUT}
pair_style      lj/cut/coul/long 12 12
bond_style      harmonic
angle_style     harmonic
dihedral_style  harmonic
improper_style  cvff

# ---- Read System Configuration
read_data       ${DATA}
read_data       calf20_333_co2_27.data
Reading data file ...
  triclinic box = (0 0 0) to (26.7414 29.0805 28.4508) with tilt (0 -12.425127 0)
  1 by 1 by 1 MPI processor grid
  reading atoms ...
  1269 atoms
  scanning bonds ...
  5 = max bonds/atom
  scanning angles ...
  10 = max angles/atom
  scanning dihedrals ...
  32 = max dihedrals/atom
  scanning impropers ...
  1 = max impropers/atom
  triclinic box = (0 0 0) to (26.7414 29.0805 28.4508) with tilt (0 -12.425127 0)
  1 by 1 by 1 MPI processor grid
  reading bonds ...
  1620 bonds
  reading angles ...
  3267 angles
  reading dihedrals ...
  6264 dihedrals
  reading impropers ...
  648 impropers
Finding 1-2 1-3 1-4 neighbors ...
  special bond factors lj:    0        0        0       
  special bond factors coul:  0        0        0       
     5 = max # of 1-2 neighbors
     8 = max # of 1-3 neighbors
    24 = max # of 1-4 neighbors
    26 = max # of special neighbors
  special bonds CPU = 0.000 seconds
  read_data CPU = 0.019 seconds

# ---- Force Field Settings (AFTER read_data)
pair_modify     mix geometric tail yes
kspace_style    pppm ${PPPM_ACC}
kspace_style    pppm 1e-05
special_bonds   lj/coul 0.0 0.0 0.5
Finding 1-2 1-3 1-4 neighbors ...
  special bond factors lj:    0        0        0.5     
  special bond factors coul:  0        0        0.5     
     5 = max # of 1-2 neighbors
     8 = max # of 1-3 neighbors
    24 = max # of 1-4 neighbors
    26 = max # of special neighbors
  special bonds CPU = 0.000 seconds

# ---- Neighbor List Settings
neighbor        2.0 bin
neigh_modify    delay 0 every 1 check yes

# ---- Define Groups
# Framework: Zn_MO(1), N_MOF(2), O_MOF(3), C_MOF(4), H_MOF(5)
# CO2: cdc(6), cdo(7)
group           framework type 1 2 3 4 5
1188 atoms in group framework
group           co2       type 6 7
81 atoms in group co2
# CO2 carbons only (27 atoms) = molecular COMs for symmetric O=C=O
group           co2_com   type 6
27 atoms in group co2_com

# ---- Freeze Framework Atoms
velocity        framework set 0.0 0.0 0.0
fix             freeze framework setforce 0.0 0.0 0.0

# ---- Timestep
timestep        ${DT}
timestep        1

# ---- Initialize CO2 Velocities
velocity        co2 create ${T} ${SEED} mom yes rot yes dist gaussian
velocity        co2 create 298 ${SEED} mom yes rot yes dist gaussian
velocity        co2 create 298 12345 mom yes rot yes dist gaussian

# ---- Temperature Compute for CO2 Only
compute         Tco2 co2 temp

# ---- Thermodynamic Output Settings
thermo          ${THERMO_N}
thermo          500
thermo_style    custom step time temp c_Tco2 etotal pe ke evdwl ecoul elong ebond eangle edihed eimp press vol density
thermo_modify   temp Tco2
WARNING: Temperature for thermo pressure is not for group all (src/src/thermo.cpp:569)

# ---- Energy Check (zero-step run)
run             0
WARNING: No fixes with time integration, atoms won't move
For more information see https://docs.lammps.org/err0028 (src/src/verlet.cpp:60)
PPPM initialization ...
WARNING: System is not charge neutral, net charge = -0.0216
For more information see https://docs.lammps.org/err0029 (src/src/kspace.cpp:330)
  using 12-bit tables for long-range coulomb
  G vector (1/distance) = 0.24486585
  grid = 16 18 24
  stencil order = 5
  estimated absolute RMS force accuracy = 0.0019783888
  estimated relative force accuracy = 5.9578592e-06
  using double precision KISS FFT
  3d grid and FFT values/proc = 17825 6912
Generated 21 of 21 mixed pair_coeff terms from geometric mixing rule
Neighbor list info ...
  update: every = 1 steps, delay = 0 steps, check = yes
  max neighbors/atom: 2000, page size: 100000
  master list distance cutoff = 14
  ghost atom cutoff = 14
  binsize = 7, bins = 6 5 5
  1 neighbor lists, perpetual/occasional/extra = 1 0 0
  (1) pair lj/cut/coul/long, perpetual
      attributes: half, newton on
      pair build: half/bin/newton/tri
      stencil: half/bin/3d/tri
      bin: standard
WARNING: Inconsistent image flags
For more information see https://docs.lammps.org/err0027 (src/src/domain.cpp:1052)
WARNING: Bond/angle/dihedral extent > half of periodic box length (src/src/domain.cpp:1174)
Per MPI rank memory allocation (min/avg/max) = 25.21 | 25.21 | 25.21 Mbytes
   Step          Time           Temp          c_Tco2         TotEng         PotEng         KinEng         E_vdwl         E_coul         E_long         E_bond        E_angle        E_dihed        E_impro         Press          Volume        Density    
         0   0              298            298            80532.216      80461.153      71.062512     -635.43427      8237.4189     -9947.6685      64418.764      18386.465      0              1.6076757     -63008.425      22124.858      1.5275294    
WARNING: Bond/angle/dihedral extent > half of periodic box length (src/src/domain.cpp:1174)
Loop time of 1.84e-06 on 1 procs for 0 steps with 1269 atoms

108.7% CPU use with 1 MPI tasks x 1 OpenMP threads

MPI task timing breakdown:
Section |  min time  |  avg time  |  max time  |%varavg| %total
---------------------------------------------------------------
Pair    | 0          | 0          | 0          |   0.0 |  0.00
Bond    | 0          | 0          | 0          |   0.0 |  0.00
Kspace  | 0          | 0          | 0          |   0.0 |  0.00
Neigh   | 0          | 0          | 0          |   0.0 |  0.00
Comm    | 0          | 0          | 0          |   0.0 |  0.00
Output  | 0          | 0          | 0          |   0.0 |  0.00
Modify  | 0          | 0          | 0          |   0.0 |  0.00
Other   |            | 1.84e-06   |            |       |100.00

Nlocal:           1269 ave        1269 max        1269 min
Histogram: 1 0 0 0 0 0 0 0 0 0
Nghost:           9031 ave        9031 max        9031 min
Histogram: 1 0 0 0 0 0 0 0 0 0
Neighs:         422910 ave      422910 max      422910 min
Histogram: 1 0 0 0 0 0 0 0 0 0

Total # of neighbors = 422910
Ave neighs/atom = 333.26241
Ave special neighs/atom = 15.617021
Neighbor list builds = 0
Dangerous builds = 0

# ---- Minimization Phase
# Relax CO2 positions while framework is frozen
print           "=== Starting Minimization ==="
=== Starting Minimization ===
min_style       cg
minimize        1.0e-4 1.0e-6 ${MIN_STEPS} 10000
minimize        1.0e-4 1.0e-6 5000 10000
PPPM initialization ...
  using 12-bit tables for long-range coulomb
  G vector (1/distance) = 0.24486585
  grid = 16 18 24
  stencil order = 5
  estimated absolute RMS force accuracy = 0.0019783888
  estimated relative force accuracy = 5.9578592e-06
  using double precision KISS FFT
  3d grid and FFT values/proc = 17825 6912
Generated 21 of 21 mixed pair_coeff terms from geometric mixing rule
WARNING: Inconsistent image flags
For more information see https://docs.lammps.org/err0027 (src/src/domain.cpp:1052)
WARNING: Bond/angle/dihedral extent > half of periodic box length (src/src/domain.cpp:1174)
Per MPI rank memory allocation (min/avg/max) = 26.34 | 26.34 | 26.34 Mbytes
   Step          Time           Temp          c_Tco2         TotEng         PotEng         KinEng         E_vdwl         E_coul         E_long         E_bond        E_angle        E_dihed        E_impro         Press          Volume        Density    
         0   0              298            298            80532.216      80461.153      71.062512     -635.43427      8237.4189     -9947.6685      64418.764      18386.465      0              1.6076757     -63008.425      22124.858      1.5275294    
         1   1              298            298            80531.725      80460.662      71.062512     -635.51094      8236.6887     -9947.6829      64419.021      18386.539      0              1.6076757     -63307.305      22124.858      1.5275294    
WARNING: Bond/angle/dihedral extent > half of periodic box length (src/src/domain.cpp:1174)
Loop time of 0.0148726 on 1 procs for 1 steps with 1269 atoms

98.6% CPU use with 1 MPI tasks x 1 OpenMP threads

Minimization stats:
  Stopping criterion = energy tolerance
  Energy initial, next-to-last, final = 
      80461.1533362508   80461.1533362508   80460.6624395922
  Force two-norm initial, final = 27.121728 29.586021
  Force max component initial, final = 3.4088772 3.6275849
  Final line search alpha, max atom move = 0.029335172 0.10641583
  Iterations, force evaluations = 1 2

MPI task timing breakdown:
Section |  min time  |  avg time  |  max time  |%varavg| %total
---------------------------------------------------------------
Pair    | 0.011569   | 0.011569   | 0.011569   |   0.0 | 77.79
Bond    | 0.00067344 | 0.00067344 | 0.00067344 |   0.0 |  4.53
Kspace  | 0.0023975  | 0.0023975  | 0.0023975  |   0.0 | 16.12
Neigh   | 0          | 0          | 0          |   0.0 |  0.00
Comm    | 8.7725e-05 | 8.7725e-05 | 8.7725e-05 |   0.0 |  0.59
Output  | 0          | 0          | 0          |   0.0 |  0.00
Modify  | 1.5575e-05 | 1.5575e-05 | 1.5575e-05 |   0.0 |  0.10
Other   |            | 0.0001296  |            |       |  0.87

Nlocal:           1269 ave        1269 max        1269 min
Histogram: 1 0 0 0 0 0 0 0 0 0
Nghost:           9031 ave        9031 max        9031 min
Histogram: 1 0 0 0 0 0 0 0 0 0
Neighs:         422910 ave      422910 max      422910 min
Histogram: 1 0 0 0 0 0 0 0 0 0

Total # of neighbors = 422910
Ave neighs/atom = 333.26241
Ave special neighs/atom = 15.617021
Neighbor list builds = 0
Dangerous builds = 0

# ---- Reset for Dynamics
reset_timestep  0

# ---- NVT Thermostat for CO2 Only
fix             nvt_co2 co2 nvt temp ${T} ${T} 100.0
fix             nvt_co2 co2 nvt temp 298 ${T} 100.0
fix             nvt_co2 co2 nvt temp 298 298 100.0
fix_modify      nvt_co2 temp Tco2
WARNING: Temperature for fix modify is not for group all (src/src/fix_nh.cpp:1402)

# ---- Remove COM Drift of CO2
fix             mom_co2 co2 momentum 100 linear 1 1 1

# ---- Equilibration Phase
print           "=== Starting Equilibration: 50 ps ==="
=== Starting Equilibration: 50 ps ===

# Equilibration trajectory (optional, can comment out to save space)
dump            eq_traj co2 custom ${DUMP_N} equil.lammpstrj id mol type x y z xu yu zu vx vy vz
dump            eq_traj co2 custom 1000 equil.lammpstrj id mol type x y z xu yu zu vx vy vz
dump_modify     eq_traj sort id

run             ${EQ_STEPS}
run             50000
PPPM initialization ...
  using 12-bit tables for long-range coulomb
  G vector (1/distance) = 0.24486585
  grid = 16 18 24
  stencil order = 5
  estimated absolute RMS force accuracy = 0.0019783888
  estimated relative force accuracy = 5.9578592e-06
  using double precision KISS FFT
  3d grid and FFT values/proc = 17825 6912
Generated 21 of 21 mixed pair_coeff terms from geometric mixing rule
WARNING: Inconsistent image flags
For more information see https://docs.lammps.org/err0027 (src/src/domain.cpp:1052)
WARNING: Bond/angle/dihedral extent > half of periodic box length (src/src/domain.cpp:1174)
Per MPI rank memory allocation (min/avg/max) = 25.21 | 25.21 | 25.21 Mbytes
   Step          Time           Temp          c_Tco2         TotEng         PotEng         KinEng         E_vdwl         E_coul         E_long         E_bond        E_angle        E_dihed        E_impro         Press          Volume        Density    
         0   0              298            298            80531.725      80460.662      71.062512     -635.51094      8236.6887     -9947.6829      64419.021      18386.539      0              1.6076757     -63307.305      22124.858      1.5275294    
       500   500            422.67465      422.67465      80561.788      80460.995      100.79303     -617.06419      8211.9954     -9944.1433      64420.617      18387.982      0              1.6076757     -62435.413      22124.858      1.5275294    
      1000   1000           366.9853       366.9853       80557.101      80469.588      87.513077     -622.67742      8218.3726     -9944.3917      64424.818      18391.859      0              1.6076757     -62819.581      22124.858      1.5275294    
      1500   1500           276.26768      276.26768      80543.702      80477.822      65.880117     -615.99922      8216.4239     -9945.6935      64429.451      18392.032      0              1.6076757     -62688.54       22124.858      1.5275294    
      2000   2000           237.67969      237.67969      80540.553      80483.875      56.678242     -618.74491      8218.5932     -9944.0911      64433.316      18393.194      0              1.6076757     -62684.176      22124.858      1.5275294    
      2500   2500           257.95326      257.95326      80537.531      80476.019      61.512775     -620.59366      8213.2543     -9945.6911      64434.543      18392.898      0              1.6076757     -62940.522      22124.858      1.5275294    
      3000   3000           306.56429      306.56429      80558.167      80485.063      73.104792     -616.37654      8213.9838     -9944.9878      64435.311      18395.524      0              1.6076757     -62458.612      22124.858      1.5275294    
      3500   3500           299.48177      299.48177      80559.228      80487.812      71.415862     -617.30636      8219.9638     -9944.3232      64432.61       18395.261      0              1.6076757     -62994.149      22124.858      1.5275294    
      4000   4000           302.02551      302.02551      80545.079      80473.057      72.022454     -614.98038      8207.8004     -9944.4415      64426.945      18396.126      0              1.6076757     -62379.567      22124.858      1.5275294    
      4500   4500           274.93081      274.93081      80548.925      80483.364      65.561321     -612.30263      8218.4767     -9945.7933      64426.236      18395.139      0              1.6076757     -62860.079      22124.858      1.5275294    
      5000   5000           296.29882      296.29882      80550.499      80479.842      70.656839     -621.69321      8220.9638     -9944.4251      64426.47       18396.919      0              1.6076757     -62587.342      22124.858      1.5275294    
      5500   5500           283.55587      283.55587      80553.413      80485.795      67.618095     -609.3705       8209.352      -9943.2459      64430.061      18397.391      0              1.6076757     -62942.292      22124.858      1.5275294    
      6000   6000           301.19785      301.19785      80562.714      80490.889      71.825086     -611.43892      8211.4499     -9944.2103      64434.194      18399.287      0              1.6076757     -62239.715      22124.858      1.5275294    
      6500   6500           300.75484      300.75484      80554.126      80482.407      71.719444     -614.34288      8208.4718     -9944.6539      64435.555      18395.769      0              1.6076757     -62969.055      22124.858      1.5275294    
      7000   7000           278.73877      278.73877      80557.514      80491.045      66.469385     -606.82291      8206.3265     -9944.3148      64437.104      18397.144      0              1.6076757     -62170.326      22124.858      1.5275294    
      7500   7500           299.67665      299.67665      80548.673      80477.21       71.462335     -617.36361      8207.4097     -9944.7171      64435.233      18395.04       0              1.6076757     -62975.786      22124.858      1.5275294    
      8000   8000           302.96969      302.96969      80563.424      80491.177      72.247607     -611.76151      8214.7714     -9945.0794      64434.51       18397.128      0              1.6076757     -62366.473      22124.858      1.5275294    
      8500   8500           311.43225      311.43225      80563.805      80489.539      74.265632     -619.25183      8219.1892     -9943.9354      64433.214      18398.715      0              1.6076757     -63045.738      22124.858      1.5275294    
      9000   9000           295.68443      295.68443      80553.999      80483.488      70.510328     -609.25471      8205.7571     -9945.6151      64431.672      18399.322      0              1.6076757     -62344.664      22124.858      1.5275294    
      9500   9500           305.01017      305.01017      80555.428      80482.693      72.734192     -615.10565      8209.9224     -9945.2847      64432.137      18399.416      0              1.6076757     -62942.717      22124.858      1.5275294    
     10000   10000          261.89377      261.89377      80537.725      80475.272      62.452446     -616.89539      8207.7763     -9945.5869      64432.093      18396.277      0              1.6076757     -62603.158      22124.858      1.5275294    
     10500   10500          269.10339      269.10339      80544.149      80479.977      64.171687     -618.11369      8207.9494     -9944.4452      64435.21       18397.77       0              1.6076757     -62975.753      22124.858      1.5275294    
     11000   11000          241.51809      241.51809      80541.518      80483.924      57.593563     -623.987        8217.1632     -9944.5925      64435.804      18397.928      0              1.6076757     -62646.172      22124.858      1.5275294    
     11500   11500          293.42333      293.42333      80555.209      80485.238      69.971137     -613.80129      8203.5521     -9944.6558      64438.349      18400.186      0              1.6076757     -62927.992      22124.858      1.5275294    
     12000   12000          287.10339      287.10339      80556.008      80487.544      68.464053     -615.28539      8208.0125     -9945.1797      64438.404      18399.984      0              1.6076757     -62560.08       22124.858      1.5275294    
     12500   12500          355.77501      355.77501      80588.532      80503.692      84.839818     -605.47365      8207.4122     -9944.1513      64441.656      18402.641      0              1.6076757     -62580.367      22124.858      1.5275294    
     13000   13000          256.44279      256.44279      80541          80479.847      61.152581     -620.33587      8208.6648     -9943.9921      64435.998      18397.904      0              1.6076757     -62716.534      22124.858      1.5275294    
     13500   13500          284.57861      284.57861      80557.21       80489.348      67.861982     -616.30767      8209.2556     -9943.8161      64438.605      18400.003      0              1.6076757     -62767.001      22124.858      1.5275294    
     14000   14000          261.94136      261.94136      80543.395      80480.931      62.463795     -620.66413      8205.4853     -9944.881       64438.567      18400.816      0              1.6076757     -62864.01       22124.858      1.5275294    
     14500   14500          278.25638      278.25638      80550.662      80484.307      66.354354     -620.42855      8211.4957     -9944.9506      64439.387      18397.196      0              1.6076757     -62727.531      22124.858      1.5275294    
     15000   15000          291.48026      291.48026      80554.913      80485.405      69.507784     -621.33627      8212.3886     -9945.3422      64440.237      18397.85       0              1.6076757     -62850.748      22124.858      1.5275294    
     15500   15500          266.73776      266.73776      80552.134      80488.526      63.607567     -622.41362      8218.2066     -9945.4549      64438.332      18398.249      0              1.6076757     -62842.341      22124.858      1.5275294    
     16000   16000          299.3529       299.3529       80549.938      80478.553      71.385131     -623.21158      8211.4679     -9944.4317      64436.47       18396.65       0              1.6076757     -62807.519      22124.858      1.5275294    
     16500   16500          302.91819      302.91819      80563.34       80491.105      72.235328     -615.45828      8212.4479     -9944.7551      64437.037      18400.226      0              1.6076757     -62698.134      22124.858      1.5275294    
     17000   17000          309.48715      309.48715      80556.347      80482.545      73.801792     -617.89267      8205.6475     -9944.4997      64437.345      18400.337      0              1.6076757     -62705.711      22124.858      1.5275294    
     17500   17500          271.20601      271.20601      80556.669      80491.996      64.673089     -614.49787      8207.7613     -9943.9516      64438.769      18402.308      0              1.6076757     -62784.424      22124.858      1.5275294    
     18000   18000          235.66788      235.66788      80539.192      80482.994      56.198495     -609.05198      8195.7043     -9944.3822      64436.343      18402.773      0              1.6076757     -62531.132      22124.858      1.5275294    
     18500   18500          324.17301      324.17301      80563.82       80486.517      77.303854     -619.1973       8204.6449     -9944.467       64439.397      18404.531      0              1.6076757     -62935.848      22124.858      1.5275294    
     19000   19000          299.30199      299.30199      80557.806      80486.433      71.37299      -618.37507      8208.4045     -9945.4589      64437.489      18402.766      0              1.6076757     -62688.726      22124.858      1.5275294    
     19500   19500          308.2661       308.2661       80564.807      80491.296      73.510614     -622.36548      8212.1367     -9945.2214      64440.777      18404.361      0              1.6076757     -62876.504      22124.858      1.5275294    
     20000   20000          305.07197      305.07197      80566.596      80493.847      72.748927     -615.0456       8204.2321     -9944.8405      64444.395      18403.498      0              1.6076757     -62757.97       22124.858      1.5275294    
     20500   20500          314.90379      314.90379      80571.249      80496.155      75.093471     -620.81864      8212.3537     -9945.9385      64446.257      18402.695      0              1.6076757     -62897.531      22124.858      1.5275294    
     21000   21000          320.83076      320.83076      80568.453      80491.946      76.506845     -622.03714      8209.813      -9945.4798      64444.481      18403.561      0              1.6076757     -62687.284      22124.858      1.5275294    
     21500   21500          315.5574       315.5574       80569.506      80494.257      75.249333     -617.00962      8207.1199     -9944.0553      64444.275      18402.319      0              1.6076757     -63038.063      22124.858      1.5275294    
     22000   22000          308.70359      308.70359      80563.659      80490.044      73.614941     -617.41672      8205.6845     -9943.8653      64440.932      18403.102      0              1.6076757     -62489.54       22124.858      1.5275294    
     22500   22500          309.69417      309.69417      80558.533      80484.682      73.851159     -620.54562      8206.14       -9944.3658      64439.169      18402.677      0              1.6076757     -62915.086      22124.858      1.5275294    
     23000   23000          295.4643       295.4643       80557.284      80486.826      70.457835     -622.08761      8212.4492     -9944.3998      64439.422      18399.834      0              1.6076757     -62901.817      22124.858      1.5275294    
     23500   23500          292.32898      292.32898      80562.168      80492.458      69.710173     -618.8227       8207.8031     -9944.7744      64444.129      18402.515      0              1.6076757     -62526.317      22124.858      1.5275294    
     24000   24000          313.65652      313.65652      80569.38       80494.584      74.796041     -621.65578      8208.7388     -9945.0384      64448.044      18402.888      0              1.6076757     -63295.03       22124.858      1.5275294    
     24500   24500          333.47123      333.47123      80567.895      80488.374      79.521151     -622.50472      8204.6241     -9945.0964      64446.972      18402.772      0              1.6076757     -62436.678      22124.858      1.5275294    
     25000   25000          306.86486      306.86486      80558.431      80485.254      73.176469     -621.64869      8203.9108     -9943.7523      64442.279      18402.858      0              1.6076757     -63319.606      22124.858      1.5275294    
     25500   25500          295.17137      295.17137      80548.001      80477.613      70.387983     -620.70021      8200.7226     -9944.1981      64438.282      18401.899      0              1.6076757     -62455.952      22124.858      1.5275294    
     26000   26000          291.2546       291.2546       80558.522      80489.068      69.453971     -618.44849      8202.9813     -9944.3802      64440.68       18406.628      0              1.6076757     -62997.557      22124.858      1.5275294    
     26500   26500          286.16505      286.16505      80556.097      80487.857      68.240291     -619.73923      8204.4388     -9943.7023      64440.816      18404.436      0              1.6076757     -62513.963      22124.858      1.5275294    
     27000   27000          277.26883      277.26883      80549.643      80483.524      66.118858     -620.18191      8205.4493     -9944.5643      64440.757      18400.457      0              1.6076757     -63176.109      22124.858      1.5275294    
     27500   27500          282.55737      282.55737      80546.362      80478.982      67.379988     -621.48258      8200.4867     -9944.0802      64440.622      18401.828      0              1.6076757     -62286.992      22124.858      1.5275294    
     28000   28000          254.53926      254.53926      80547.092      80486.394      60.698655     -617.07326      8200.5381     -9944.2027      64445.761      18399.762      0              1.6076757     -63356.829      22124.858      1.5275294    
     28500   28500          296.21142      296.21142      80564.585      80493.949      70.635999     -622.40434      8205.696      -9945.4357      64450.77       18403.715      0              1.6076757     -62275.469      22124.858      1.5275294    
     29000   29000          301.10868      301.10868      80572.878      80501.074      71.803822     -622.1311       8210.3196     -9945.3996      64454.189      18402.488      0              1.6076757     -63447.544      22124.858      1.5275294    
     29500   29500          279.20435      279.20435      80553.573      80486.993      66.580411     -624.71088      8209.0055     -9945.8104      64447.259      18399.641      0              1.6076757     -62537.179      22124.858      1.5275294    
     30000   30000          275.65536      275.65536      80558.401      80492.666      65.734102     -614.67577      8202.2637     -9945.7366      64446.865      18402.342      0              1.6076757     -62933.726      22124.858      1.5275294    
     30500   30500          282.88763      282.88763      80552.775      80485.316      67.458743     -619.20005      8201.986      -9944.1436      64443.38       18401.687      0              1.6076757     -62540.33       22124.858      1.5275294    
     31000   31000          281.86584      281.86584      80559.051      80491.836      67.215082     -624.88082      8208.8038     -9943.3553      64443.473      18406.188      0              1.6076757     -63102.697      22124.858      1.5275294    
     31500   31500          280.54987      280.54987      80557.363      80490.462      66.901269     -624.28738      8206.3272     -9945.5936      64444.22       18408.188      0              1.6076757     -62667.178      22124.858      1.5275294    
     32000   32000          305.93703      305.93703      80568.166      80495.211      72.955214     -625.86982      8209.0898     -9944.5078      64446.1        18408.791      0              1.6076757     -63286.248      22124.858      1.5275294    
     32500   32500          305.29937      305.29937      80559.71       80486.907      72.803155     -621.46598      8202.7631     -9946.6063      64442.933      18407.675      0              1.6076757     -62693.213      22124.858      1.5275294    
     33000   33000          288.84586      288.84586      80564.341      80495.461      68.879571     -618.95271      8204.0008     -9945.6118      64444.954      18409.463      0              1.6076757     -63024.706      22124.858      1.5275294    
     33500   33500          284.8672       284.8672       80558.75       80490.819      67.930801     -622.14953      8202.0179     -9945.2973      64448.599      18406.042      0              1.6076757     -62851.222      22124.858      1.5275294    
     34000   34000          271.25925      271.25925      80551.113      80486.428      64.685783     -620.20061      8200.2828     -9945.7434      64446.869      18403.612      0              1.6076757     -62825.07       22124.858      1.5275294    
     34500   34500          276.50665      276.50665      80544.777      80478.84       65.937105     -622.60709      8198.7897     -9944.5495      64444.703      18400.896      0              1.6076757     -62887.9        22124.858      1.5275294    
     35000   35000          327.26322      327.26322      80567.364      80489.323      78.040759     -617.84582      8198.0427     -9944.9955      64448.297      18404.217      0              1.6076757     -62713.686      22124.858      1.5275294    
     35500   35500          315.41962      315.41962      80570.054      80494.837      75.216478     -618.0132       8199.7653     -9945.4646      64449.432      18407.51       0              1.6076757     -62892.864      22124.858      1.5275294    
     36000   36000          315.53117      315.53117      80564.942      80489.698      75.24308      -617.7619       8197.8184     -9945.7001      64449.995      18403.74       0              1.6076757     -62598.511      22124.858      1.5275294    
     36500   36500          287.4454       287.4454       80563.434      80494.888      68.545612     -621.57276      8199.3484     -9945.3179      64454.216      18406.607      0              1.6076757     -63055.926      22124.858      1.5275294    
     37000   37000          306.63974      306.63974      80575.916      80502.794      73.122786     -622.32287      8205.8733     -9945.6791      64459.357      18403.957      0              1.6076757     -62581.55       22124.858      1.5275294    
     37500   37500          309.728        309.728        80580.011      80506.152      73.859226     -616.83376      8197.5704     -9944.4526      64462.728      18405.531      0              1.6076757     -63252.616      22124.858      1.5275294    
     38000   38000          283.7064       283.7064       80578.109      80510.455      67.65399      -616.70673      8199.5164     -9945.3304      64463.98       18407.388      0              1.6076757     -62101.28       22124.858      1.5275294    
     38500   38500          272.96812      272.96812      80563.107      80498.014      65.093288     -620.59723      8197.8776     -9945.1764      64458.68       18405.623      0              1.6076757     -63486.468      22124.858      1.5275294    
     39000   39000          263.97264      263.97264      80555.552      80492.604      62.948185     -618.7177       8198.0614     -9944.7247      64450.168      18406.21       0              1.6076757     -62390.271      22124.858      1.5275294    
     39500   39500          304.52288      304.52288      80559.538      80486.92       72.617988     -620.27395      8196.0529     -9944.413       64448.101      18405.845      0              1.6076757     -63045.708      22124.858      1.5275294    
     40000   40000          372.29324      372.29324      80572.407      80483.628      88.778834     -620.9064       8198.5946     -9945.2572      64445.813      18403.776      0              1.6076757     -62644.819      22124.858      1.5275294    
     40500   40500          378.51876      378.51876      80569.182      80478.918      90.263401     -622.01156      8198.8344     -9945.263       64438.79       18406.96       0              1.6076757     -62719.15       22124.858      1.5275294    
     41000   41000          379.46871      379.46871      80561.727      80471.237      90.489932     -620.368        8195.4393     -9944.8234      64435.617      18403.765      0              1.6076757     -62758.989      22124.858      1.5275294    
     41500   41500          339.9321       339.9321       80553.711      80472.65       81.061842     -626.35453      8201.0672     -9945.7074      64439.323      18402.714      0              1.6076757     -62810.633      22124.858      1.5275294    
     42000   42000          290.75125      290.75125      80544.764      80475.43       69.333939     -621.75552      8197.282      -9945.532       64443.272      18400.556      0              1.6076757     -62942.084      22124.858      1.5275294    
     42500   42500          271.61741      271.61741      80543.962      80479.19       64.771193     -623.21851      8196.4428     -9945.598       64446.962      18402.995      0              1.6076757     -62393.967      22124.858      1.5275294    
     43000   43000          291.8989       291.8989       80561.802      80492.195      69.607613     -625.5892       8199.0156     -9946.2607      64458.397      18405.024      0              1.6076757     -63664.037      22124.858      1.5275294    
     43500   43500          285.71811      285.71811      80564.925      80496.791      68.133713     -622.73061      8195.1295     -9945.1234      64456.014      18411.894      0              1.6076757     -62083.655      22124.858      1.5275294    
     44000   44000          306.4179       306.4179       80559.194      80486.125      73.069884     -621.18096      8193.3179     -9945.1658      64449.314      18408.232      0              1.6076757     -63530.656      22124.858      1.5275294    
     44500   44500          313.69049      313.69049      80555.674      80480.87       74.80414      -618.01615      8190.3239     -9944.7259      64442.334      18409.346      0              1.6076757     -62310.989      22124.858      1.5275294    
     45000   45000          326.30322      326.30322      80564.116      80486.304      77.811833     -621.25951      8198.9253     -9945.1522      64445.142      18407.041      0              1.6076757     -62975.207      22124.858      1.5275294    
     45500   45500          333.78602      333.78602      80558.021      80478.424      79.596218     -622.03651      8190.573      -9945.0784      64445.345      18408.014      0              1.6076757     -62844.404      22124.858      1.5275294    
     46000   46000          334.02518      334.02518      80565.077      80485.423      79.65325      -620.15795      8194.3905     -9945.6236      64449.267      18405.94       0              1.6076757     -62684.377      22124.858      1.5275294    
     46500   46500          314.19105      314.19105      80571.878      80496.954      74.923507     -622.06305      8195.5579     -9945.7063      64456.508      18411.05       0              1.6076757     -63067.076      22124.858      1.5275294    
     47000   47000          272.35866      272.35866      80564.428      80499.48       64.947954     -619.55636      8194.3341     -9945.5895      64457.083      18411.602      0              1.6076757     -62705.589      22124.858      1.5275294    
     47500   47500          256.83505      256.83505      80554.932      80493.685      61.24612      -617.50609      8189.0663     -9945.4133      64454.937      18410.994      0              1.6076757     -62998.505      22124.858      1.5275294    
     48000   48000          281.1582       281.1582       80566.644      80499.598      67.046336     -625.05365      8196.1219     -9944.7864      64455.792      18415.917      0              1.6076757     -62830.874      22124.858      1.5275294    
     48500   48500          301.30002      301.30002      80568.13       80496.28       71.849451     -622.07719      8192.204      -9943.9194      64456.075      18412.39       0              1.6076757     -63081.452      22124.858      1.5275294    
     49000   49000          267.16227      267.16227      80547.739      80484.031      63.708798     -621.65666      8194.7476     -9945.5983      64447.793      18407.138      0              1.6076757     -62835.757      22124.858      1.5275294    
     49500   49500          296.70755      296.70755      80549.761      80479.006      70.754307     -627.88879      8199.205      -9945.561       64447.712      18403.932      0              1.6076757     -62908.007      22124.858      1.5275294    
     50000   50000          317.12727      317.12727      80556.235      80480.611      75.623693     -624.70319      8196.706      -9945.3264      64447.691      18404.636      0              1.6076757     -62922.861      22124.858      1.5275294    
WARNING: Bond/angle/dihedral extent > half of periodic box length (src/src/domain.cpp:1174)
Loop time of 186.283 on 1 procs for 50000 steps with 1269 atoms

Performance: 23.191 ns/day, 1.035 hours/ns, 268.409 timesteps/s, 340.612 katom-step/s
99.7% CPU use with 1 MPI tasks x 1 OpenMP threads

MPI task timing breakdown:
Section |  min time  |  avg time  |  max time  |%varavg| %total
---------------------------------------------------------------
Pair    | 137.84     | 137.84     | 137.84     |   0.0 | 74.00
Bond    | 9.6672     | 9.6672     | 9.6672     |   0.0 |  5.19
Kspace  | 29.625     | 29.625     | 29.625     |   0.0 | 15.90
Neigh   | 6.7436     | 6.7436     | 6.7436     |   0.0 |  3.62
Comm    | 1.3222     | 1.3222     | 1.3222     |   0.0 |  0.71
Output  | 0.01074    | 0.01074    | 0.01074    |   0.0 |  0.01
Modify  | 0.68286    | 0.68286    | 0.68286    |   0.0 |  0.37
Other   |            | 0.3883     |            |       |  0.21

Nlocal:           1269 ave        1269 max        1269 min
Histogram: 1 0 0 0 0 0 0 0 0 0
Nghost:           9093 ave        9093 max        9093 min
Histogram: 1 0 0 0 0 0 0 0 0 0
Neighs:         422648 ave      422648 max      422648 min
Histogram: 1 0 0 0 0 0 0 0 0 0

Total # of neighbors = 422648
Ave neighs/atom = 333.05595
Ave special neighs/atom = 15.617021
Neighbor list builds = 446
Dangerous builds = 0

undump          eq_traj
print           "=== Equilibration Complete ==="
=== Equilibration Complete ===

# ---- Production Phase
print           "=== Starting Production: 1 ns ==="
=== Starting Production: 1 ns ===
reset_timestep  0

# Production trajectory - unwrapped coordinates for diffusion analysis
dump            prod_traj all custom ${DUMP_N} prod.lammpstrj id mol type q x y z xu yu zu ix iy iz
dump            prod_traj all custom 1000 prod.lammpstrj id mol type q x y z xu yu zu ix iy iz
dump_modify     prod_traj sort id

# ---- MSD Computation for CO2 Molecular Centers-of-Mass
# For symmetric O=C=O: carbon position = molecular COM exactly
# Track 27 carbon atoms, com yes removes group drift
compute         msd_co2 co2_com msd com yes

# ---- MSD Output to File
# Columns: TimeStep MSD_x MSD_y MSD_z MSD_total
fix             msd_out all ave/time ${MSD_N} 1 ${MSD_N}                 c_msd_co2[1] c_msd_co2[2] c_msd_co2[3] c_msd_co2[4]                 file msd.dat mode scalar
fix             msd_out all ave/time 100 1 ${MSD_N}                 c_msd_co2[1] c_msd_co2[2] c_msd_co2[3] c_msd_co2[4]                 file msd.dat mode scalar
fix             msd_out all ave/time 100 1 100                 c_msd_co2[1] c_msd_co2[2] c_msd_co2[3] c_msd_co2[4]                 file msd.dat mode scalar

# ---- Production Run
run             ${PR_STEPS}
run             1000000
PPPM initialization ...
  using 12-bit tables for long-range coulomb
  G vector (1/distance) = 0.24486585
  grid = 16 18 24
  stencil order = 5
  estimated absolute RMS force accuracy = 0.0019783888
  estimated relative force accuracy = 5.9578592e-06
  using double precision KISS FFT
  3d grid and FFT values/proc = 17825 6912
Generated 21 of 21 mixed pair_coeff terms from geometric mixing rule
WARNING: Inconsistent image flags
For more information see https://docs.lammps.org/err0027 (src/src/domain.cpp:1052)
WARNING: Bond/angle/dihedral extent > half of periodic box length (src/src/domain.cpp:1174)
Per MPI rank memory allocation (min/avg/max) = 25.59 | 25.59 | 25.59 Mbytes
   Step          Time           Temp          c_Tco2         TotEng         PotEng         KinEng         E_vdwl         E_coul         E_long         E_bond        E_angle        E_dihed        E_impro         Press          Volume        Density    
         0   0              317.12727      317.12727      80556.235      80480.611      75.623693     -624.70319      8196.706      -9945.3264      64447.691      18404.636      0              1.6076757     -62922.861      22124.858      1.5275294    
       500   500            326.1461       326.1461       80562.582      80484.808      77.774366     -624.55642      8199.2349     -9944.8564      64448.199      18405.179      0              1.6076757     -62588.686      22124.858      1.5275294    
      1000   1000           336.54285      336.54285      80569.489      80489.235      80.253625     -621.23991      8194.3713     -9943.88        64451.65       18406.726      0              1.6076757     -63243.89       22124.858      1.5275294    
      1500   1500           297.79477      297.79477      80553.615      80482.601      71.013571     -622.04838      8194.7336     -9945.4889      64449.849      18403.948      0              1.6076757     -62337.651      22124.858      1.5275294    
      2000   2000           304.51969      304.51969      80562.569      80489.952      72.617227     -624.47724      8199.3324     -9945.4258      64454.256      18404.659      0              1.6076757     -63269.077      22124.858      1.5275294    
      2500   2500           298.44087      298.44087      80556.028      80484.861      71.167644     -619.29226      8190.217      -9945.4368      64452.669      18405.096      0              1.6076757     -62641.224      22124.858      1.5275294    
      3000   3000           288.17207      288.17207      80553.246      80484.527      68.718897     -624.63465      8193.6504     -9945.1618      64453.047      18406.018      0              1.6076757     -62747.26       22124.858      1.5275294    
      3500   3500           270.69575      270.69575      80556.75       80492.198      64.551409     -618.17548      8187.2286     -9943.9257      64457.535      18407.929      0              1.6076757     -63062.003      22124.858      1.5275294    
      4000   4000           273.269        273.269        80565.063      80499.898      65.165039     -622.86189      8192.8964     -9943.889       64461.622      18410.522      0              1.6076757     -62537.37       22124.858      1.5275294    
      4500   4500           250.91075      250.91075      80551.709      80491.876      59.833384     -620.17723      8187.9398     -9945.1017      64458.211      18409.397      0              1.6076757     -63068.157      22124.858      1.5275294    
      5000   5000           248.61088      248.61088      80550.814      80491.529      59.284946     -620.67135      8191.6037     -9945.1193      64455.483      18408.625      0              1.6076757     -62663.269      22124.858      1.5275294    
      5500   5500           296.55083      296.55083      80564.811      80494.094      70.716936     -623.54253      8195.1777     -9946.0521      64457.235      18409.668      0              1.6076757     -62985.333      22124.858      1.5275294    
      6000   6000           285.31635      285.31635      80563.318      80495.28       68.037908     -622.657        8193.9885     -9945.0295      64457.07       18410.3        0              1.6076757     -62854.95       22124.858      1.5275294    
      6500   6500           259.58048      259.58048      80554.15       80492.249      61.900807     -624.53383      8193.1554     -9944.9553      64454.839      18412.136      0              1.6076757     -62872.154      22124.858      1.5275294    
      7000   7000           280.17789      280.17789      80555.475      80488.662      66.812565     -624.50789      8194.9401     -9944.9206      64453.8        18407.743      0              1.6076757     -63043.334      22124.858      1.5275294    
      7500   7500           303.35802      303.35802      80564.515      80492.175      72.34021      -624.22492      8193.2468     -9944.5102      64456.323      18409.733      0              1.6076757     -62803.339      22124.858      1.5275294    
      8000   8000           319.83617      319.83617      80564.959      80488.689      76.26967      -620.23678      8189.4914     -9944.8923      64452.506      18410.213      0              1.6076757     -62668.914      22124.858      1.5275294    
      8500   8500           308.58442      308.58442      80563.571      80489.984      73.586524     -623.00281      8192.0585     -9944.4621      64452.718      18411.065      0              1.6076757     -63186.437      22124.858      1.5275294    
      9000   9000           293.53161      293.53161      80559.012      80489.015      69.996958     -624.91672      8193.2465     -9945.6171      64450.846      18413.849      0              1.6076757     -62439.36       22124.858      1.5275294    
      9500   9500           271.075        271.075        80541.83       80477.188      64.641847     -622.40233      8189.688      -9945.7155      64445.522      18408.489      0              1.6076757     -63217.439      22124.858      1.5275294    
     10000   10000          261.84771      261.84771      80548.973      80486.531      62.441462     -620.58876      8193.3564     -9945.0513      64450.401      18406.807      0              1.6076757     -62763.979      22124.858      1.5275294    
     10500   10500          259.45181      259.45181      80553.42       80491.55       61.870126     -623.46498      8189.4667     -9945.4803      64456.107      18413.314      0              1.6076757     -62902.708      22124.858      1.5275294    
     11000   11000          266.27978      266.27978      80561.919      80498.42       63.498355     -623.8193       8193.4241     -9944.6591      64461.658      18410.209      0              1.6076757     -62784.481      22124.858      1.5275294    
     11500   11500          282.83486      282.83486      80566.005      80498.559      67.44616      -622.76965      8191.435      -9944.6666      64464.32       18408.633      0              1.6076757     -63081.45       22124.858      1.5275294    
     12000   12000          365.50777      365.50777      80596.267      80509.106      87.16074      -623.75024      8193.6264     -9945.5855      64470.309      18412.899      0              1.6076757     -62678.958      22124.858      1.5275294    
     12500   12500          273.11877      273.11877      80556.107      80490.978      65.129214     -623.88037      8195.5405     -9945.4328      64456.972      18406.171      0              1.6076757     -62727.976      22124.858      1.5275294    
     13000   13000          300.07097      300.07097      80558.784      80487.228      71.556364     -623.77221      8191.7805     -9946.3847      64454.728      18409.268      0              1.6076757     -63242.576      22124.858      1.5275294    
     13500   13500          345.19945      345.19945      80577.8        80495.482      82.317918     -624.68621      8195.4515     -9946.3359      64454.239      18415.206      0              1.6076757     -62669.581      22124.858      1.5275294    
     14000   14000          360.88602      360.88602      80574.469      80488.411      86.058614     -621.10792      8191.1321     -9945.8225      64450.534      18412.067      0              1.6076757     -62739.159      22124.858      1.5275294    
     14500   14500          337.0858       337.0858       80565.913      80485.53       80.383099     -621.66827      8190.2297     -9945.0013      64452.247      18408.114      0              1.6076757     -63127.083      22124.858      1.5275294    
     15000   15000          289.14801      289.14801      80555.666      80486.715      68.951623     -624.34498      8188.7004     -9946.0516      64451.275      18415.528      0              1.6076757     -62494.107      22124.858      1.5275294    
     15500   15500          277.86429      277.86429      80559.687      80493.426      66.260852     -620.85547      8191.1028     -9945.7906      64453.19       18414.172      0              1.6076757     -63191.536      22124.858      1.5275294    
     16000   16000          308.05655      308.05655      80570.192      80496.731      73.460644     -623.95265      8191.6857     -9945.1859      64457.462      18415.115      0              1.6076757     -63024.948      22124.858      1.5275294    
     16500   16500          309.19869      309.19869      80575.788      80502.055      73.733005     -621.42865      8190.1775     -9945.6405      64459.703      18417.636      0              1.6076757     -62630.56       22124.858      1.5275294    
     17000   17000          280.21721      280.21721      80562.191      80495.369      66.821943     -625.32101      8192.1325     -9945.6868      64456.822      18415.815      0              1.6076757     -63232.842      22124.858      1.5275294    
     17500   17500          253.76333      253.76333      80560.996      80500.482      60.513623     -624.30427      8195.3733     -9945.6286      64457.354      18416.08       0              1.6076757     -62937.616      22124.858      1.5275294    
     18000   18000          250.49455      250.49455      80557.325      80497.591      59.734133     -622.88615      8189.5519     -9945.5426      64461.271      18413.59       0              1.6076757     -62940.823      22124.858      1.5275294    
     18500   18500          264.49424      264.49424      80556.193      80493.12       63.072566     -625.05176      8191.9659     -9945.9149      64459.785      18410.728      0              1.6076757     -62896.719      22124.858      1.5275294    
     19000   19000          289.59093      289.59093      80562.425      80493.367      69.057244     -620.15657      8187.5436     -9945.1192      64462.157      18407.335      0              1.6076757     -63015.644      22124.858      1.5275294    
     19500   19500          288.45274      288.45274      80569.008      80500.222      68.785827     -625.59816      8193.7605     -9945.7643      64466.579      18409.637      0              1.6076757     -62543.707      22124.858      1.5275294    
     20000   20000          310.36118      310.36118      80565.67       80491.66       74.010219     -623.29249      8191.5916     -9945.8045      64461.654      18405.904      0              1.6076757     -63170.288      22124.858      1.5275294    
     20500   20500          321.40236      321.40236      80561.904      80485.261      76.64315      -619.98425      8185.1241     -9945.1253      64459.414      18404.224      0              1.6076757     -62431.552      22124.858      1.5275294    
     21000   21000          295.97869      295.97869      80562.237      80491.657      70.5805       -622.99376      8189.432      -9945.0888      64461.295      18407.405      0              1.6076757     -63184.839      22124.858      1.5275294    
     21500   21500          285.18056      285.18056      80556.112      80488.107      68.005525     -623.56285      8189.2653     -9945.2513      64455.474      18410.574      0              1.6076757     -62215.884      22124.858      1.5275294    
     22000   22000          298.37643      298.37643      80555.665      80484.512      71.152276     -624.09645      8189.0696     -9945.6715      64457.642      18405.96       0              1.6076757     -63753.931      22124.858      1.5275294    
     22500   22500          282.13063      282.13063      80562.047      80494.769      67.278226     -620.98586      8188.4664     -9945.0842      64457.931      18412.834      0              1.6076757     -62036.423      22124.858      1.5275294    
     23000   23000          258.65018      258.65018      80561.326      80499.647      61.678965     -625.66456      8191.61       -9945.4501      64459.527      18418.016      0              1.6076757     -63496.847      22124.858      1.5275294    
     23500   23500          253.96617      253.96617      80551.707      80491.145      60.561993     -623.97392      8192.2489     -9946.6042      64457.617      18410.25       0              1.6076757     -62730.35       22124.858      1.5275294    
     24000   24000          313.04386      313.04386      80560.337      80485.687      74.649944     -623.6389       8188.6717     -9945.2626      64458.224      18406.086      0              1.6076757     -63013.434      22124.858      1.5275294    
     24500   24500          303.8814       303.8814       80569.755      80497.29       72.465018     -624.84217      8192.817      -9945.1967      64459.766      18413.138      0              1.6076757     -62801.845      22124.858      1.5275294    
     25000   25000          317.88423      317.88423      80570.31       80494.506      75.804201     -624.69999      8189.7042     -9946.1157      64456.511      18417.498      0              1.6076757     -62647.72       22124.858      1.5275294    
     25500   25500          336.05037      336.05037      80576.603      80496.467      80.136184     -622.40315      8190.0717     -9945.2468      64461.475      18410.963      0              1.6076757     -63594.438      22124.858      1.5275294    
     26000   26000          313.06246      313.06246      80566.907      80492.253      74.654377     -621.36854      8188.8172     -9944.9276      64457.018      18411.106      0              1.6076757     -62047.133      22124.858      1.5275294    
     26500   26500          298.13613      298.13613      80557.515      80486.42       71.094974     -623.17475      8184.01       -9944.0779      64453.778      18414.277      0              1.6076757     -63297.272      22124.858      1.5275294    
     27000   27000          283.37339      283.37339      80567.016      80499.442      67.57458      -621.77676      8189.0785     -9943.5668      64457.919      18416.18       0              1.6076757     -62714.523      22124.858      1.5275294    
     27500   27500          251.15583      251.15583      80562.645      80502.754      59.891826     -620.88079      8183.9328     -9944.9035      64461.343      18421.655      0              1.6076757     -63026.304      22124.858      1.5275294    
     28000   28000          274.49265      274.49265      80569.099      80503.642      65.456836     -623.21729      8188.9367     -9945.0435      64466.803      18414.556      0              1.6076757     -62638.961      22124.858      1.5275294    
     28500   28500          272.7025       272.7025       80561.05       80496.02       65.029948     -619.50352      8182.6222     -9944.2303      64464.858      18410.666      0              1.6076757     -63566.768      22124.858      1.5275294    
     29000   29000          254.3646       254.3646       80553.353      80492.696      60.657005     -625.09306      8191.2707     -9944.7922      64460.828      18408.875      0              1.6076757     -61708.403      22124.858      1.5275294    
     29500   29500          259.78034      259.78034      80550.01       80488.061      61.948467     -621.97437      8181.984      -9943.9311      64461.286      18409.089      0              1.6076757     -64171.659      22124.858      1.5275294    
     30000   30000          294.7008       294.7008       80563.678      80493.403      70.275769     -622.11697      8188.2145     -9944.5241      64459.639      18410.583      0              1.6076757     -61564.586      22124.858      1.5275294    
     30500   30500          318.87506      318.87506      80553.086      80477.045      76.040479     -622.21203      8184.0055     -9944.5494      64452.312      18405.882      0              1.6076757     -63427.68       22124.858      1.5275294    
     31000   31000          300.50242      300.50242      80549.628      80477.969      71.65925      -622.99658      8188.834      -9944.7973      64449.814      18405.508      0              1.6076757     -62738.855      22124.858      1.5275294    
     31500   31500          270.18425      270.18425      80546.938      80482.508      64.429435     -623.79404      8187.3512     -9944.8354      64449.217      18412.962      0              1.6076757     -62544.044      22124.858      1.5275294    
     32000   32000          300.82517      300.82517      80562.786      80491.05       71.736216     -622.58718      8186.8094     -9944.689       64455.133      18414.776      0              1.6076757     -63455.08       22124.858      1.5275294    
     32500   32500          311.69088      311.69088      80567.013      80492.686      74.327305     -620.66404      8185.8515     -9944.5074      64452.071      18418.328      0              1.6076757     -62293.46       22124.858      1.5275294    
     33000   33000          295.28538      295.28538      80560.503      80490.088      70.41517      -622.82538      8186.4948     -9945.5553      64458.25       18412.116      0              1.6076757     -63367.189      22124.858      1.5275294    
     33500   33500          253.90541      253.90541      80551.754      80491.206      60.547504     -623.78211      8188.038      -9945.4544      64458.406      18412.391      0              1.6076757     -62588.327      22124.858      1.5275294    
     34000   34000          237.01986      237.01986      80550.596      80494.075      56.520893     -626.92298      8190.4216     -9945.4874      64459.866      18414.591      0              1.6076757     -63411.883      22124.858      1.5275294    
     34500   34500          239.03662      239.03662      80557.287      80500.285      57.001821     -622.41904      8187.1685     -9945.2668      64462.919      18416.277      0              1.6076757     -62454.852      22124.858      1.5275294    
     35000   35000          299.50249      299.50249      80565.739      80494.318      71.420803     -623.13013      8186.2344     -9945.4516      64463.259      18411.799      0              1.6076757     -63568.247      22124.858      1.5275294    
     35500   35500          331.38446      331.38446      80558.531      80479.508      79.02353      -620.61114      8184.8878     -9944.5396      64451.392      18406.771      0              1.6076757     -61964.927      22124.858      1.5275294    
     36000   36000          316.25532      316.25532      80548.204      80472.788      75.415762     -621.68379      8182.3612     -9944.4552      64447.228      18407.731      0              1.6076757     -63459.565      22124.858      1.5275294    
     36500   36500          295.4182       295.4182       80553.035      80482.588      70.446843     -619.21266      8182.0506     -9943.7071      64452.14       18409.71       0              1.6076757     -62224.213      22124.858      1.5275294    
     37000   37000          295.58638      295.58638      80574.706      80504.219      70.486948     -621.58122      8181.4309     -9943.4149      64466.955      18419.221      0              1.6076757     -63082.136      22124.858      1.5275294    
     37500   37500          285.1343       285.1343       80576.342      80508.348      67.994494     -621.10434      8184.0589     -9944.0123      64470.237      18417.561      0              1.6076757     -62654.395      22124.858      1.5275294    
     38000   38000          291.23716      291.23716      80566.279      80496.829      69.449812     -619.94592      8180.6604     -9944.8504      64462.034      18417.323      0              1.6076757     -63369.282      22124.858      1.5275294    
     38500   38500          294.16694      294.16694      80559.638      80489.49       70.148462     -622.14882      8184.8445     -9944.691       64458.221      18411.657      0              1.6076757     -62176.309      22124.858      1.5275294    
     39000   39000          314.15647      314.15647      80554.478      80479.563      74.915262     -621.28154      8181.9381     -9944.3733      64459.413      18402.259      0              1.6076757     -63098.864      22124.858      1.5275294    
     39500   39500          316.54338      316.54338      80559.908      80484.424      75.484455     -625.91744      8189.2581     -9944.7257      64462.907      18401.294      0              1.6076757     -62659.925      22124.858      1.5275294    
     40000   40000          318.32586      318.32586      80564.647      80488.737      75.909514     -623.85354      8186.5966     -9945.2092      64460.302      18409.293      0              1.6076757     -62736.762      22124.858      1.5275294    
     40500   40500          309.49842      309.49842      80549.855      80476.051      73.80448      -619.73864      8181.2661     -9945.5099      64452.741      18405.685      0              1.6076757     -62851.643      22124.858      1.5275294    
     41000   41000          291.76558      291.76558      80553.748      80484.172      69.575821     -622.35613      8185.0779     -9945.0914      64456.855      18408.079      0              1.6076757     -62663.585      22124.858      1.5275294    
     41500   41500          311.95194      311.95194      80566.498      80492.108      74.389559     -623.22924      8183.866      -9944.7754      64461.422      18413.217      0              1.6076757     -63000.204      22124.858      1.5275294    
     42000   42000          297.73372      297.73372      80573.058      80502.059      70.999013     -621.83885      8185.5246     -9944.6234      64464.215      18417.174      0              1.6076757     -62803.577      22124.858      1.5275294    
     42500   42500          275.8195       275.8195       80560.095      80494.322      65.773244     -619.87375      8181.4675     -9944.7407      64459.209      18416.653      0              1.6076757     -62892.896      22124.858      1.5275294    
     43000   43000          281.20782      281.20782      80561.218      80494.16       67.058169     -623.19235      8184.4701     -9944.7177      64462.135      18413.858      0              1.6076757     -63027.658      22124.858      1.5275294    
     43500   43500          284.46527      284.46527      80578.755      80510.92       67.834955     -623.77072      8185.6666     -9943.8253      64470.229      18421.013      0              1.6076757     -62782.975      22124.858      1.5275294    
     44000   44000          280.80233      280.80233      80565.595      80498.634      66.961473     -621.64216      8183.974      -9944.4766      64467.204      18411.967      0              1.6076757     -62934.233      22124.858      1.5275294    
     44500   44500          297.90187      297.90187      80569.113      80498.074      71.039111     -617.76472      8176.0159     -9944.6386      64463.72       18419.134      0              1.6076757     -62890.343      22124.858      1.5275294    
     45000   45000          288.38712      288.38712      80556.167      80487.397      68.770178     -622.58641      8186.1498     -9944.3398      64455.067      18411.498      0              1.6076757     -62662.697      22124.858      1.5275294    
     45500   45500          312.17616      312.17616      80564.702      80490.259      74.443027     -622.24827      8180.5325     -9944.0398      64455.524      18418.883      0              1.6076757     -63141.177      22124.858      1.5275294    
     46000   46000          312.14106      312.14106      80565.291      80490.856      74.434656     -621.265        8185.1492     -9945.0569      64458.197      18412.224      0              1.6076757     -62562.237      22124.858      1.5275294    
     46500   46500          289.05223      289.05223      80554.164      80485.235      68.928783     -621.68855      8180.8669     -9944.5167      64456.1        18412.866      0              1.6076757     -62950.254      22124.858      1.5275294    
     47000   47000          254.86648      254.86648      80546.803      80486.027      60.776684     -620.69292      8182.5436     -9944.5358      64453.092      18414.012      0              1.6076757     -62994.912      22124.858      1.5275294    
     47500   47500          282.95547      282.95547      80559.964      80492.489      67.474921     -622.81567      8183.7026     -9944.6248      64457.835      18416.784      0              1.6076757     -62598.056      22124.858      1.5275294    
     48000   48000          317.01506      317.01506      80565.922      80490.325      75.596935     -617.9848       8178.7918     -9944.1296      64458.797      18413.243      0              1.6076757     -63059.527      22124.858      1.5275294    
     48500   48500          290.78778      290.78778      80550.383      80481.04       69.342651     -619.10938      8179.1012     -9944.1962      64452.231      18411.406      0              1.6076757     -62657.293      22124.858      1.5275294    
     49000   49000          278.35008      278.35008      80547.617      80481.24       66.376696     -625.54248      8185.2989     -9944.4392      64449.969      18414.346      0              1.6076757     -62767.97       22124.858      1.5275294    
     49500   49500          268.14592      268.14592      80558.804      80494.86       63.943365     -622.30869      8184.2086     -9944.1231      64458.249      18417.227      0              1.6076757     -63324.677      22124.858      1.5275294    
     50000   50000          289.7654       289.7654       80567.687      80498.588      69.09885      -621.65342      8179.6692     -9944.3703      64461.105      18422.229      0              1.6076757     -62533.413      22124.858      1.5275294    
     50500   50500          291.82229      291.82229      80555.489      80485.9        69.589345     -623.24126      8184.6542     -9944.2299      64460.557      18406.552      0              1.6076757     -62956.075      22124.858      1.5275294    
     51000   51000          292.90027      292.90027      80550.722      80480.876      69.846406     -620.22927      8179.7195     -9944.302       64458.145      18405.935      0              1.6076757     -62837.415      22124.858      1.5275294    
     51500   51500          318.35377      318.35377      80557.832      80481.916      75.916168     -622.06044      8183.4579     -9944.3894      64453.268      18410.032      0              1.6076757     -62231.96       22124.858      1.5275294    
     52000   52000          317.09565      317.09565      80565.47       80489.854      75.616152     -620.22896      8182.7822     -9944.8279      64456.016      18414.505      0              1.6076757     -63753.653      22124.858      1.5275294    
     52500   52500          328.74314      328.74314      80571.27       80492.876      78.393669     -623.04546      8183.2312     -9944.6578      64456.705      18419.036      0              1.6076757     -61861.081      22124.858      1.5275294    
     53000   53000          371.69506      371.69506      80583.088      80494.452      88.636189     -622.07382      8183.8517     -9944.5358      64462.097      18413.505      0              1.6076757     -63635.711      22124.858      1.5275294    
     53500   53500          310.51802      310.51802      80571.662      80497.614      74.047619     -621.72717      8180.6916     -9944.1097      64463.663      18417.489      0              1.6076757     -62435.237      22124.858      1.5275294    
     54000   54000          293.63587      293.63587      80561.577      80491.555      70.021819     -620.47307      8180.352      -9943.5764      64461.608      18412.037      0              1.6076757     -62903.869      22124.858      1.5275294    
     54500   54500          265.19469      265.19469      80551.712      80488.472      63.2396       -620.90485      8178.9266     -9943.6774      64463.482      18409.039      0              1.6076757     -62914.131      22124.858      1.5275294    
     55000   55000          282.29583      282.29583      80561.744      80494.426      67.317619     -621.15578      8183.8818     -9944.5534      64467.779      18406.867      0              1.6076757     -62215.566      22124.858      1.5275294    
     55500   55500          283.69721      283.69721      80567.281      80499.63       67.651798     -619.65215      8175.847      -9944.2419      64472.082      18413.987      0              1.6076757     -63755.49       22124.858      1.5275294    
     56000   56000          274.0726       274.0726       80566.245      80500.888      65.356669     -623.49519      8186.2688     -9944.519       64465.198      18415.827      0              1.6076757     -61820.82       22124.858      1.5275294    
     56500   56500          316.24956      316.24956      80572.17       80496.756      75.41439      -619.3883       8177.832      -9943.8482      64463.07       18417.483      0              1.6076757     -63885.123      22124.858      1.5275294    
     57000   57000          309.26981      309.26981      80557.342      80483.593      73.749965     -621.18265      8182.0444     -9943.9041      64449.034      18415.993      0              1.6076757     -62076.079      22124.858      1.5275294    
     57500   57500          356.00547      356.00547      80564.035      80479.14       84.894774     -621.52537      8178.5031     -9944.2743      64448.565      18416.264      0              1.6076757     -63230.562      22124.858      1.5275294    
     58000   58000          397.85443      397.85443      80573.474      80478.6        94.874279     -620.583        8180.1891     -9943.8641      64446.112      18415.138      0              1.6076757     -62405.298      22124.858      1.5275294    
     58500   58500          379.77143      379.77143      80571.584      80481.022      90.56212      -623.36701      8182.3835     -9944.6761      64448.614      18416.46       0              1.6076757     -63190.7        22124.858      1.5275294    
     59000   59000          316.02594      316.02594      80558.394      80483.032      75.361064     -622.03294      8180.9343     -9944.1316      64448.919      18417.736      0              1.6076757     -62431.832      22124.858      1.5275294    
     59500   59500          290.93461      290.93461      80554.428      80485.05       69.377665     -620.33743      8179.3373     -9944.0103      64454.793      18413.66       0              1.6076757     -63070.174      22124.858      1.5275294    
     60000   60000          302.64925      302.64925      80569.082      80496.91       72.171195     -622.1926       8181.4738     -9943.8041      64465.911      18413.914      0              1.6076757     -62651.857      22124.858      1.5275294    
     60500   60500          276.18304      276.18304      80572.617      80506.757      65.859935     -621.34143      8182.4823     -9944.7143      64477.466      18411.257      0              1.6076757     -62979.839      22124.858      1.5275294    
     61000   61000          252.65642      252.65642      80562.328      80502.079      60.249663     -619.79558      8177.3706     -9944.0505      64471.339      18415.607      0              1.6076757     -62620.024      22124.858      1.5275294    
     61500   61500          242.9635       242.9635       80556.959      80499.021      57.938244     -619.50591      8179.3357     -9943.738       64465.718      18415.603      0              1.6076757     -63072.22       22124.858      1.5275294    
     62000   62000          263.10306      263.10306      80560.991      80498.25       62.740821     -621.95952      8179.039      -9943.5808      64461.269      18421.874      0              1.6076757     -62862.295      22124.858      1.5275294    
     62500   62500          302.09525      302.09525      80567.446      80495.407      72.039084     -620.23103      8179.7583     -9943.7063      64459.258      18418.72       0              1.6076757     -62556.743      22124.858      1.5275294    
     63000   63000          328.24061      328.24061      80568.482      80490.208      78.273832     -621.17987      8177.1773     -9944.6162      64460.413      18416.806      0              1.6076757     -63463.208      22124.858      1.5275294    
     63500   63500          261.78245      261.78245      80538.875      80476.449      62.4259       -620.44828      8181.6342     -9944.4097      64448.813      18409.253      0              1.6076757     -62036.224      22124.858      1.5275294    
     64000   64000          295.21669      295.21669      80551.494      80481.095      70.398791     -618.02722      8174.9067     -9943.9176      64450.667      18415.858      0              1.6076757     -63640.025      22124.858      1.5275294    
     64500   64500          305.79851      305.79851      80559.203      80486.281      72.922181     -621.02399      8180.4949     -9944.0467      64455.31       18413.939      0              1.6076757     -62013.432      22124.858      1.5275294    
     65000   65000          283.02848      283.02848      80563.225      80495.733      67.492331     -620.51629      8177.9746     -9944.0246      64467.298      18413.394      0              1.6076757     -63276.906      22124.858      1.5275294    
     65500   65500          297.46242      297.46242      80569.186      80498.251      70.934317     -620.90022      8179.6742     -9943.8934      64470.136      18411.627      0              1.6076757     -62700.615      22124.858      1.5275294    
     66000   66000          274.86404      274.86404      80554.626      80489.081      65.5454       -620.68797      8180.6008     -9944.9531      64464.172      18408.341      0              1.6076757     -62425.561      22124.858      1.5275294    
     66500   66500          279.29743      279.29743      80554.548      80487.946      66.602607     -618.15459      8174.9031     -9944.5508      64459.541      18414.599      0              1.6076757     -63302.72       22124.858      1.5275294    
     67000   67000          283.25528      283.25528      80551.013      80483.466      67.546414     -620.71891      8181.9885     -9944.5905      64451.874      18413.305      0              1.6076757     -62462.384      22124.858      1.5275294    
     67500   67500          321.99659      321.99659      80558.291      80481.506      76.784855     -619.87284      8175.6096     -9944.165       64450.653      18417.673      0              1.6076757     -62739.593      22124.858      1.5275294    
     68000   68000          353.86418      353.86418      80565.718      80481.333      84.384153     -623.20677      8184.5249     -9944.3646      64452.757      18410.016      0              1.6076757     -63083.975      22124.858      1.5275294    
     68500   68500          340.28054      340.28054      80560.613      80479.468      81.144933     -619.56193      8175.8514     -9943.8969      64451.147      18414.321      0              1.6076757     -62468.137      22124.858      1.5275294    
     69000   69000          355.46371      355.46371      80565.081      80480.315      84.765585     -618.62445      8177.6939     -9943.9089      64452.381      18411.166      0              1.6076757     -62566.211      22124.858      1.5275294    
     69500   69500          310.89253      310.89253      80556.679      80482.542      74.136927     -619.24947      8174.5605     -9943.4772      64454.697      18414.403      0              1.6076757     -63233.523      22124.858      1.5275294    
     70000   70000          281.76538      281.76538      80553.537      80486.346      67.191126     -620.94776      8181.3199     -9944.0717      64453.668      18414.77       0              1.6076757     -62072.48       22124.858      1.5275294    
     70500   70500          323.04151      323.04151      80562.947      80485.913      77.034031     -619.71945      8173.5553     -9943.152       64458.689      18414.933      0              1.6076757     -63502.471      22124.858      1.5275294    
     71000   71000          355.58191      355.58191      80567.127      80482.333      84.79377      -620.38569      8181.4216     -9944.1946      64456.148      18407.736      0              1.6076757     -62140.011      22124.858      1.5275294    
     71500   71500          363.08442      363.08442      80577.087      80490.504      86.582854     -618.41083      8173.9977     -9943.9071      64458.025      18419.192      0              1.6076757     -63051.603      22124.858      1.5275294    
     72000   72000          364.89388      364.89388      80577.102      80490.088      87.014347     -620.78284      8182.1886     -9944.2972      64452.561      18418.811      0              1.6076757     -62444.073      22124.858      1.5275294    
     72500   72500          312.06037      312.06037      80557.849      80483.434      74.415414     -621.47767      8177.9466     -9944.2611      64453.137      18416.481      0              1.6076757     -63242.491      22124.858      1.5275294    
     73000   73000          298.34039      298.34039      80551.397      80480.254      71.143683     -621.34195      8180.5103     -9943.9917      64456.215      18407.254      0              1.6076757     -62525.781      22124.858      1.5275294    
     73500   73500          327.22543      327.22543      80562.26       80484.229      78.031747     -622.05758      8180.0233     -9944.9091      64454.964      18414.6        0              1.6076757     -62498.782      22124.858      1.5275294    
     74000   74000          326.82814      326.82814      80569.263      80491.326      77.937009     -618.97594      8178.3497     -9943.4092      64462.903      18410.85       0              1.6076757     -63337.97       22124.858      1.5275294    
     74500   74500          315.6537       315.6537       80558.233      80482.96       75.272298     -622.18775      8178.7694     -9944.3444      64452.91       18416.206      0              1.6076757     -62425.734      22124.858      1.5275294    
     75000   75000          303.85907      303.85907      80549.988      80477.528      72.459694     -620.68351      8179.4105     -9944.2569      64450.205      18411.245      0              1.6076757     -62668.014      22124.858      1.5275294    
     75500   75500          336.16705      336.16705      80562.017      80481.853      80.164009     -617.43671      8175.313      -9944.0528      64455.82       18410.602      0              1.6076757     -62861.943      22124.858      1.5275294    
     76000   76000          389.34755      389.34755      80575.14       80482.295      92.845687     -619.84818      8178.1986     -9944.0388      64454.352      18412.024      0              1.6076757     -62820.439      22124.858      1.5275294    
     76500   76500          389.40088      389.40088      80580.456      80487.598      92.858403     -621.00863      8178.2325     -9944.1055      64459.285      18413.586      0              1.6076757     -62146.448      22124.858      1.5275294    
     77000   77000          304.05901      304.05901      80552.887      80480.38       72.507373     -620.12868      8179.5674     -9943.7897      64456.829      18406.294      0              1.6076757     -63248.88       22124.858      1.5275294    
     77500   77500          268.1632       268.1632       80548.778      80484.831      63.947486     -620.87585      8176.0755     -9943.5955      64456.284      18415.335      0              1.6076757     -62447.983      22124.858      1.5275294    
     78000   78000          273.74423      273.74423      80561.698      80496.42       65.278364     -618.03903      8176.8475     -9943.6139      64462.547      18417.071      0              1.6076757     -62810.257      22124.858      1.5275294    
     78500   78500          265.19854      265.19854      80559.701      80496.461      63.240519     -618.0724       8173.2892     -9943.8447      64463.085      18420.397      0              1.6076757     -63360.521      22124.858      1.5275294    
     79000   79000          239.40917      239.40917      80551.133      80494.043      57.09066      -622.24197      8182.1714     -9944.0516      64462.147      18414.41       0              1.6076757     -61935.492      22124.858      1.5275294    
     79500   79500          241.19019      241.19019      80557.7        80500.184      57.515371     -618.19053      8174.047      -9943.798       64473.782      18412.736      0              1.6076757     -64131.65       22124.858      1.5275294    
     80000   80000          262.86428      262.86428      80565.298      80502.614      62.68388      -623.68465      8182.3145     -9943.7628      64471.579      18414.56       0              1.6076757     -61506.792      22124.858      1.5275294    
     80500   80500          274.52149      274.52149      80551.448      80485.985      65.463712     -620.90191      8177.454      -9944.222       64465.145      18406.902      0              1.6076757     -63762.745      22124.858      1.5275294    
     81000   81000          298.85436      298.85436      80553.745      80482.479      71.266245     -619.31964      8177.6779     -9944.5118      64457.989      18409.036      0              1.6076757     -62095.86       22124.858      1.5275294    
     81500   81500          315.9091       315.9091       80555.874      80480.541      75.333201     -622.11123      8180.1483     -9944.6243      64455.617      18409.903      0              1.6076757     -63056.931      22124.858      1.5275294    
     82000   82000          341.8566       341.8566       80568.024      80486.504      81.520768     -623.0958       8182.6117     -9944.6674      64456.532      18413.515      0              1.6076757     -62850.669      22124.858      1.5275294    
     82500   82500          300.90667      300.90667      80552.777      80481.022      71.755651     -623.27987      8183.0433     -9944.5836      64452.615      18411.62       0              1.6076757     -62434.918      22124.858      1.5275294    
     83000   83000          270.94344      270.94344      80548.274      80483.664      64.610475     -621.73379      8179.6187     -9945.1729      64454.983      18414.361      0              1.6076757     -63711.965      22124.858      1.5275294    
     83500   83500          249.82481      249.82481      80550.572      80490.997      59.574424     -622.6543       8183.2653     -9944.5485      64461.491      18411.836      0              1.6076757     -61582.084      22124.858      1.5275294    
     84000   84000          229.43029      229.43029      80561.571      80506.86       54.711049     -623.43354      8180.6162     -9944.9941      64475.606      18417.458      0              1.6076757     -64609.946      22124.858      1.5275294    
     84500   84500          222.92161      222.92161      80561.707      80508.548      53.158958     -622.422        8184.6214     -9944.6062      64471.323      18418.024      0              1.6076757     -61405.603      22124.858      1.5275294    
     85000   85000          246.70658      246.70658      80549.242      80490.411      58.830836     -620.89561      8176.9144     -9944.6421      64462.14       18415.287      0              1.6076757     -64097.846      22124.858      1.5275294    
     85500   85500          270.97452      270.97452      80554.837      80490.219      64.617887     -622.93974      8183.1987     -9945.1002      64459.179      18414.274      0              1.6076757     -62058.774      22124.858      1.5275294    
     86000   86000          313.45447      313.45447      80569.454      80494.706      74.747858     -621.03023      8180.3255     -9944.8695      64463.728      18414.944      0              1.6076757     -63510.16       22124.858      1.5275294    
     86500   86500          314.86752      314.86752      80561.677      80486.592      75.084821     -623.43202      8182.1123     -9945.16        64455.534      18415.93       0              1.6076757     -62193.229      22124.858      1.5275294    
     87000   87000          341.8201       341.8201       80552.766      80471.254      81.512062     -623.40238      8181.5548     -9944.7621      64447.639      18408.617      0              1.6076757     -63510.987      22124.858      1.5275294    
     87500   87500          311.40678      311.40678      80546.91       80472.65       74.259556     -619.918        8176.9145     -9944.268       64443.667      18414.647      0              1.6076757     -61975.545      22124.858      1.5275294    
     88000   88000          365.522        365.522        80566.305      80479.14       87.164131     -623.48365      8184.4545     -9945.2068      64452.173      18409.596      0              1.6076757     -63408.006      22124.858      1.5275294    
     88500   88500          372.55436      372.55436      80567.182      80478.341      88.841102     -621.92056      8179.0904     -9945.1129      64449.842      18414.834      0              1.6076757     -62690.535      22124.858      1.5275294    
     89000   89000          291.18803      291.18803      80544.635      80475.197      69.438096     -623.38065      8183.0515     -9944.9944      64451.303      18407.61       0              1.6076757     -62331.765      22124.858      1.5275294    
     89500   89500          262.93694      262.93694      80544.379      80481.677      62.701205     -623.74209      8181.4617     -9945.5033      64461.958      18405.895      0              1.6076757     -63571.17       22124.858      1.5275294    
     90000   90000          290.14478      290.14478      80567.668      80498.478      69.189318     -620.73181      8181.5804     -9944.6253      64468.836      18411.811      0              1.6076757     -62027.84       22124.858      1.5275294    
     90500   90500          291.63886      291.63886      80563.104      80493.558      69.545603     -621.16669      8178.4387     -9945.2592      64467.884      18412.053      0              1.6076757     -63281.954      22124.858      1.5275294    
     91000   91000          252.69626      252.69626      80554.189      80493.93       60.259163     -620.28168      8179.5919     -9944.2073      64465.636      18411.583      0              1.6076757     -62757.113      22124.858      1.5275294    
     91500   91500          229.55521      229.55521      80550.501      80495.76       54.740838     -621.68631      8179.4924     -9944.2334      64467.361      18413.218      0              1.6076757     -62610.25       22124.858      1.5275294    
     92000   92000          265.62439      265.62439      80561.198      80497.856      63.342068     -623.1304       8180.4951     -9944.6859      64468.817      18414.752      0              1.6076757     -63307.965      22124.858      1.5275294    
     92500   92500          311.44034      311.44034      80570.588      80496.32       74.267559     -619.22332      8178.111      -9944.5118      64461.072      18419.265      0              1.6076757     -62567.159      22124.858      1.5275294    
     93000   93000          337.03263      337.03263      80564.02       80483.65       80.37042      -618.42609      8176.1425     -9944.2599      64451.965      18416.62       0              1.6076757     -62668.716      22124.858      1.5275294    
     93500   93500          343.75411      343.75411      80560.876      80478.903      81.973256     -623.12403      8181.6224     -9945.1243      64449.412      18414.51       0              1.6076757     -63267.034      22124.858      1.5275294    
     94000   94000          301.98555      301.98555      80548.731      80476.718      72.012925     -620.09692      8178.1866     -9944.0882      64449.84       18411.268      0              1.6076757     -62072.009      22124.858      1.5275294    
     94500   94500          364.84567      364.84567      80571.206      80484.204      87.002851     -623.04193      8181.5215     -9944.9491      64458.646      18410.419      0              1.6076757     -63440.776      22124.858      1.5275294    
     95000   95000          358.58599      358.58599      80573.649      80488.139      85.510139     -620.35598      8180.3267     -9943.9141      64459.236      18411.239      0              1.6076757     -62348.713      22124.858      1.5275294    
     95500   95500          323.28827      323.28827      80568.367      80491.274      77.092874     -619.1229       8175.3272     -9944.6107      64463.152      18414.921      0              1.6076757     -62685.461      22124.858      1.5275294    
     96000   96000          276.52514      276.52514      80558.871      80492.93       65.941514     -622.47211      8182.2887     -9944.2786      64465.383      18410.401      0              1.6076757     -63158.954      22124.858      1.5275294    
     96500   96500          275.10512      275.10512      80559.444      80493.841      65.602888     -618.86394      8174.3848     -9944.5169      64464.071      18417.159      0              1.6076757     -62583.433      22124.858      1.5275294    
     97000   97000          289.05545      289.05545      80571.886      80502.956      68.929552     -621.53028      8183.4        -9944.5482      64468.435      18415.592      0              1.6076757     -62880.617      22124.858      1.5275294    
     97500   97500          277.66587      277.66587      80570.046      80503.833      66.213536     -622.44469      8178.7008     -9944.6094      64470.128      18420.451      0              1.6076757     -63104.813      22124.858      1.5275294    
     98000   98000          276.8881       276.8881       80566.808      80500.78       66.028067     -621.24434      8180.8249     -9944.6808      64467.178      18417.094      0              1.6076757     -62859.545      22124.858      1.5275294    
     98500   98500          246.66131      246.66131      80552.939      80494.119      58.820042     -621.36027      8178.3777     -9944.7689      64462.273      18417.99       0              1.6076757     -62620.369      22124.858      1.5275294    
     99000   99000          234.55654      234.55654      80545.468      80489.535      55.933479     -621.96466      8180.3103     -9944.2363      64460.975      18412.843      0              1.6076757     -63517.183      22124.858      1.5275294    
     99500   99500          291.58966      291.58966      80561.178      80491.644      69.533871     -622.31288      8180.6539     -9945.5435      64455.665      18421.574      0              1.6076757     -62197.021      22124.858      1.5275294    
    100000   100000         334.27038      334.27038      80569.873      80490.161      79.711722     -622.47628      8182.9572     -9944.3898      64455.708      18416.754      0              1.6076757     -63571.789      22124.858      1.5275294    
    100500   100500         308.26781      308.26781      80562.967      80489.456      73.511022     -621.99663      8178.4309     -9945.1783      64454.668      18421.924      0              1.6076757     -62228.067      22124.858      1.5275294    
    101000   101000         284.06107      284.06107      80551.955      80484.216      67.738567     -621.48965      8181.9401     -9944.4227      64453.504      18413.076      0              1.6076757     -63543.195      22124.858      1.5275294    
    101500   101500         271.47836      271.47836      80554.609      80489.871      64.738033     -621.24443      8177.5765     -9945.177       64456.399      18420.709      0              1.6076757     -62331.088      22124.858      1.5275294    
    102000   102000         281.91622      281.91622      80558.456      80491.229      67.227097     -623.28783      8186.1023     -9944.9333      64461.664      18410.076      0              1.6076757     -63285.911      22124.858      1.5275294    
    102500   102500         309.10983      309.10983      80560.346      80486.635      73.711814     -620.80353      8176.6208     -9944.4758      64460.357      18413.329      0              1.6076757     -62695.56       22124.858      1.5275294    
    103000   103000         361.6479       361.6479       80582.283      80496.043      86.240295     -622.51665      8186.5969     -9945.2295      64461.411      18414.173      0              1.6076757     -62490.619      22124.858      1.5275294    
    103500   103500         332.66236      332.66236      80574.438      80495.11       79.328265     -621.15718      8177.7844     -9944.9187      64463.05       18418.744      0              1.6076757     -63598.335      22124.858      1.5275294    
    104000   104000         257.04317      257.04317      80566.491      80505.195      61.295749     -621.46712      8181.7665     -9944.391       64465.724      18421.955      0              1.6076757     -61978.57       22124.858      1.5275294    
    104500   104500         232.28447      232.28447      80562.629      80507.238      55.39167      -623.49008      8178.8162     -9944.9717      64474.305      18420.971      0              1.6076757     -63966.552      22124.858      1.5275294    
    105000   105000         227.28606      227.28606      80559.042      80504.842      54.199725     -622.23077      8182.2383     -9944.6736      64469.667      18418.233      0              1.6076757     -62236.269      22124.858      1.5275294    
    105500   105500         216.71849      216.71849      80542.255      80490.576      51.679731     -621.4028       8179.7532     -9945.5707      64464.567      18411.621      0              1.6076757     -63421.195      22124.858      1.5275294    
    106000   106000         273.30954      273.30954      80570.742      80505.567      65.174706     -621.63452      8182.11       -9944.7958      64472.881      18415.398      0              1.6076757     -62469.209      22124.858      1.5275294    
    106500   106500         281.4301       281.4301       80573.705      80506.594      67.111174     -620.60391      8179.5417     -9944.3587      64470.238      18420.169      0              1.6076757     -63258.398      22124.858      1.5275294    
    107000   107000         281.85204      281.85204      80560.301      80493.089      67.211792     -621.13348      8180.5913     -9944.6195      64463.483      18413.161      0              1.6076757     -62549.786      22124.858      1.5275294    
    107500   107500         286.12872      286.12872      80558.501      80490.27       68.231629     -621.11203      8178.2813     -9945.2793      64463.985      18412.787      0              1.6076757     -63160.348      22124.858      1.5275294    
    108000   108000         280.00457      280.00457      80561.527      80494.756      66.771236     -621.03736      8181.6368     -9944.0406      64465.033      18411.557      0              1.6076757     -62320.37       22124.858      1.5275294    
    108500   108500         322.66783      322.66783      80584.941      80507.996      76.94492      -619.2992       8175.8165     -9944.284       64472.679      18421.476      0              1.6076757     -63520.316      22124.858      1.5275294    
    109000   109000         279.66384      279.66384      80560.91       80494.22       66.689983     -618.67586      8177.9869     -9943.8708      64460.961      18416.211      0              1.6076757     -62094.229      22124.858      1.5275294    
    109500   109500         263.05258      263.05258      80551.466      80488.737      62.728783     -619.5893       8176.0439     -9944.5815      64459.898      18415.358      0              1.6076757     -63586.749      22124.858      1.5275294    
    110000   110000         279.70545      279.70545      80558.079      80491.379      66.699906     -622.41402      8183.5837     -9944.7787      64458.233      18415.147      0              1.6076757     -62259.731      22124.858      1.5275294    
    110500   110500         309.14142      309.14142      80567.976      80494.257      73.719348     -621.51775      8179.2521     -9944.6065      64462.502      18417.02       0              1.6076757     -63326.226      22124.858      1.5275294    
    111000   111000         316.07603      316.07603      80566.742      80491.369      75.373007     -621.93227      8182.4397     -9945.1295      64459.448      18414.935      0              1.6076757     -62680.891      22124.858      1.5275294    
    111500   111500         287.67764      287.67764      80554.953      80486.352      68.600993     -622.11962      8182.5881     -9944.6846      64455.523      18413.437      0              1.6076757     -62586.583      22124.858      1.5275294    
    112000   112000         282.72102      282.72102      80551.463      80484.044      67.419012     -619.74233      8174.2179     -9944.0044      64457.818      18414.147      0              1.6076757     -63490.266      22124.858      1.5275294    
    112500   112500         260.14169      260.14169      80548.665      80486.631      62.034636     -622.1079       8185.0802     -9944.8974      64456.242      18410.706      0              1.6076757     -62032.491      22124.858      1.5275294    
    113000   113000         300.14018      300.14018      80562.035      80490.462      71.57287      -621.35476      8177.6345     -9944.5674      64460.852      18416.291      0              1.6076757     -63637.944      22124.858      1.5275294    
    113500   113500         293.52786      293.52786      80550.019      80480.023      69.996063     -623.72161      8186.0945     -9945.0356      64453.644      18407.435      0              1.6076757     -62321.115      22124.858      1.5275294    
    114000   114000         325.89847      325.89847      80547.141      80469.426      77.715314     -619.43959      8177.1532     -9944.8361      64447.949      18406.992      0              1.6076757     -62858.205      22124.858      1.5275294    
    114500   114500         371.60537      371.60537      80561.249      80472.635      88.614802     -618.71014      8179.6648     -9945.2035      64452.265      18403.011      0              1.6076757     -62850.45       22124.858      1.5275294    
    115000   115000         338.39429      338.39429      80568.989      80488.294      80.695128     -623.94643      8184.2478     -9944.8345      64460.491      18410.729      0              1.6076757     -62171.866      22124.858      1.5275294    
    115500   115500         253.83907      253.83907      80544.904      80484.373      60.531685     -622.04177      8179.8937     -9944.6025      64461.21       18408.305      0              1.6076757     -63520.251      22124.858      1.5275294    
    116000   116000         240.41119      240.41119      80550.097      80492.767      57.329608     -622.25243      8181.447      -9944.2827      64461.46       18414.788      0              1.6076757     -62341.521      22124.858      1.5275294    
    116500   116500         272.50414      272.50414      80567.5        80502.518      64.982647     -621.63653      8180.0827     -9944.9011      64465.948      18421.417      0              1.6076757     -63321.398      22124.858      1.5275294    
    117000   117000         263.90101      263.90101      80570.918      80507.987      62.931102     -618.9581       8178.1666     -9944.2301      64470.951      18420.45       0              1.6076757     -62771.452      22124.858      1.5275294    
    117500   117500         257.87315      257.87315      80562.233      80500.739      61.49367      -620.33203      8177.4901     -9944.5229      64468.377      18418.119      0              1.6076757     -63040.646      22124.858      1.5275294    
    118000   118000         306.73072      306.73072      80572.422      80499.278      73.144481     -620.40824      8180.0657     -9944.1323      64467.899      18414.246      0              1.6076757     -62508.341      22124.858      1.5275294    
    118500   118500         315.34649      315.34649      80560.389      80485.19       75.19904      -621.77289      8180.0682     -9944.3667      64462.211      18407.443      0              1.6076757     -63233.398      22124.858      1.5275294    
    119000   119000         299.87975      299.87975      80550.046      80478.536      71.510766     -621.63083      8180.7408     -9945.0585      64457.323      18405.554      0              1.6076757     -62181.396      22124.858      1.5275294    
    119500   119500         341.12975      341.12975      80563.975      80482.627      81.34744      -617.08804      8175.0147     -9943.633       64459.317      18407.409      0              1.6076757     -63097.224      22124.858      1.5275294    
    120000   120000         337.19853      337.19853      80569.449      80489.039      80.409981     -622.63718      8180.8612     -9944.8281      64459.077      18414.959      0              1.6076757     -62537.961      22124.858      1.5275294    
    120500   120500         309.04891      309.04891      80560.27       80486.573      73.697287     -622.09194      8179.7805     -9944.1223      64459.392      18412.007      0              1.6076757     -62755.012      22124.858      1.5275294    
    121000   121000         271.57716      271.57716      80552.868      80488.106      64.761593     -619.81508      8178.3393     -9944.4678      64460.292      18412.15       0              1.6076757     -63238.308      22124.858      1.5275294    
    121500   121500         230.6031       230.6031       80539.926      80484.936      54.990722     -621.80616      8178.7899     -9944.4496      64457.515      18413.279      0              1.6076757     -62166.874      22124.858      1.5275294    
    122000   122000         270.49344      270.49344      80565.178      80500.675      64.503165     -619.61394      8179.3127     -9944.4842      64467.753      18416.1        0              1.6076757     -63915.225      22124.858      1.5275294    
    122500   122500         271.34785      271.34785      80563.295      80498.588      64.706911     -619.95589      8176.9339     -9943.8713      64467.377      18416.497      0              1.6076757     -61708.023      22124.858      1.5275294    
    123000   123000         284.31905      284.31905      80558.919      80491.119      67.800087     -621.46629      8178.5947     -9943.9867      64465.831      18410.539      0              1.6076757     -63845.705      22124.858      1.5275294    
    123500   123500         254.09729      254.09729      80540.577      80479.983      60.593261     -617.63485      8173.441      -9943.8484      64456.35       18410.068      0              1.6076757     -61947.169      22124.858      1.5275294    
    124000   124000         286.7441       286.7441       80555.207      80486.828      68.378375     -622.2998       8183.9672     -9944.3953      64458.656      18409.293      0              1.6076757     -63476.709      22124.858      1.5275294    
    124500   124500         276.45918      276.45918      80551.34       80485.414      65.925784     -621.28681      8176.8096     -9944.2739      64457.777      18414.781      0              1.6076757     -62334.154      22124.858      1.5275294    
    125000   125000         294.09307      294.09307      80557.022      80486.891      70.130846     -620.06153      8181.1238     -9944.4263      64454.749      18413.898      0              1.6076757     -63182.259      22124.858      1.5275294    
    125500   125500         331.51992      331.51992      80566.056      80487          79.055834     -623.62265      8182.3747     -9944.0592      64454.073      18416.627      0              1.6076757     -62551.441      22124.858      1.5275294    
    126000   126000         301.96591      301.96591      80559.897      80487.889      72.008241     -620.45662      8180.8711     -9944.9392      64457.205      18413.601      0              1.6076757     -63152.717      22124.858      1.5275294    
    126500   126500         266.18122      266.18122      80556.694      80493.219      63.474852     -618.94734      8177.9807     -9944.3976      64462.15       18414.825      0              1.6076757     -62402.326      22124.858      1.5275294    
    127000   127000         287.69646      287.69646      80565.053      80496.448      68.605479     -621.88856      8179.9709     -9944.8879      64465.314      18416.331      0              1.6076757     -63467.926      22124.858      1.5275294    
    127500   127500         304.19255      304.19255      80571.941      80499.402      72.539216     -622.32232      8183.4261     -9944.1058      64464.764      18416.032      0              1.6076757     -62216.324      22124.858      1.5275294    
    128000   128000         291.93066      291.93066      80561.664      80492.048      69.615188     -619.56143      8176.0747     -9944.3182      64465.177      18413.068      0              1.6076757     -63252.762      22124.858      1.5275294    
    128500   128500         297.34169      297.34169      80560.361      80489.456      70.905529     -619.97103      8179.5619     -9944.2224      64462.633      18409.847      0              1.6076757     -62651.289      22124.858      1.5275294    
    129000   129000         306.23018      306.23018      80571.027      80498.001      73.02512      -619.72371      8175.6467     -9942.9775      64463.765      18419.683      0              1.6076757     -62593.08       22124.858      1.5275294    
    129500   129500         318.0271       318.0271       80574.671      80498.832      75.838269     -621.26206      8180.257      -9943.8621      64462.417      18419.675      0              1.6076757     -63184.774      22124.858      1.5275294    
    130000   130000         294.59988      294.59988      80564.821      80494.569      70.251704     -619.1383       8176.3858     -9943.5435      64457.938      18421.319      0              1.6076757     -62680.311      22124.858      1.5275294    
    130500   130500         276.86828      276.86828      80556.405      80490.382      66.023341     -620.33753      8177.8667     -9943.9848      64458.757      18416.473      0              1.6076757     -62870.757      22124.858      1.5275294    
    131000   131000         312.7509       312.7509       80569.915      80495.334      74.580081     -621.93866      8180.5124     -9943.8703      64464.627      18414.397      0              1.6076757     -62796.587      22124.858      1.5275294    
    131500   131500         283.75471      283.75471      80560.043      80492.377      67.66551      -620.73806      8177.9701     -9943.9531      64461.561      18415.929      0              1.6076757     -62965.077      22124.858      1.5275294    
    132000   132000         243.50567      243.50567      80547.23       80489.162      58.067531     -619.48324      8175.4594     -9943.8545      64460.381      18415.052      0              1.6076757     -62565.412      22124.858      1.5275294    
    132500   132500         259.13353      259.13353      80556.941      80495.146      61.794226     -621.818        8180.5782     -9943.9021      64461.174      18417.507      0              1.6076757     -63339.289      22124.858      1.5275294    
    133000   133000         302.37269      302.37269      80566.963      80494.858      72.105244     -618.30464      8174.5841     -9943.509       64459.997      18420.483      0              1.6076757     -62150.58       22124.858      1.5275294    
    133500   133500         295.90435      295.90435      80553.154      80482.592      70.562772     -617.68607      8174.1495     -9944.0343      64458.696      18409.859      0              1.6076757     -63510.743      22124.858      1.5275294    
    134000   134000         279.1138       279.1138       80547.822      80481.263      66.558818     -620.35392      8177.317      -9943.431       64455.707      18410.417      0              1.6076757     -61728.416      22124.858      1.5275294    
    134500   134500         259.89553      259.89553      80561.96       80499.984      61.975937     -620.76631      8179.3386     -9943.3876      64468.159      18415.033      0              1.6076757     -64055.87       22124.858      1.5275294    
    135000   135000         244.92867      244.92867      80560.088      80501.681      58.406867     -620.15625      8177.122      -9943.2002      64468.571      18417.736      0              1.6076757     -61727.129      22124.858      1.5275294    
    135500   135500         245.63973      245.63973      80545.254      80486.678      58.576429     -618.44656      8173.77       -9943.7425      64465.91       18407.579      0              1.6076757     -63546.114      22124.858      1.5275294    
    136000   136000         268.72242      268.72242      80550.029      80485.949      64.080838     -617.89799      8174.6965     -9943.3459      64465.603      18405.285      0              1.6076757     -62030.324      22124.858      1.5275294    
    136500   136500         291.70153      291.70153      80566.653      80497.092      69.560549     -621.23455      8180.1921     -9944.3882      64473.879      18407.037      0              1.6076757     -63225.927      22124.858      1.5275294    
    137000   137000         289.24799      289.24799      80563.692      80494.717      68.975465     -621.84664      8179.1903     -9944.4951      64470.893      18409.368      0              1.6076757     -62473.91       22124.858      1.5275294    
    137500   137500         291.77732      291.77732      80554.256      80484.678      69.578622     -622.46954      8181.7971     -9944.2541      64464.415      18403.581      0              1.6076757     -62984.951      22124.858      1.5275294    
    138000   138000         299.00976      299.00976      80554.289      80482.986      71.303305     -618.48317      8174.7972     -9944.5616      64458.781      18410.845      0              1.6076757     -62331.967      22124.858      1.5275294    
    138500   138500         309.04665      309.04665      80560.161      80486.465      73.696749     -618.24855      8180.132      -9944.5253      64454.99       18412.509      0              1.6076757     -63272.168      22124.858      1.5275294    
    139000   139000         290.53036      290.53036      80551.723      80482.442      69.281266     -621.50281      8176.7124     -9943.7409      64449.543      18419.823      0              1.6076757     -62355.296      22124.858      1.5275294    
    139500   139500         312.23401      312.23401      80556.294      80481.837      74.456823     -620.82291      8179.7361     -9943.9456      64454.59       18410.672      0              1.6076757     -63199.787      22124.858      1.5275294    
    140000   140000         395.36098      395.36098      80584.445      80490.165      94.279678     -619.97438      8177.5179     -9943.485       64462.531      18411.968      0              1.6076757     -62359.799      22124.858      1.5275294    
    140500   140500         345.16694      345.16694      80564.543      80482.233      82.310167     -620.67769      8178.0473     -9944.2333      64456.87       18410.619      0              1.6076757     -62719.285      22124.858      1.5275294    
    141000   141000         314.3128       314.3128       80558.585      80483.633      74.952541     -618.08106      8175.5814     -9943.404       64453.8        18414.129      0              1.6076757     -62967.675      22124.858      1.5275294    
    141500   141500         280.51253      280.51253      80551.954      80485.061      66.892365     -621.99761      8178.847      -9943.6801      64451.97       18418.314      0              1.6076757     -62405.857      22124.858      1.5275294    
    142000   142000         265.28366      265.28366      80545.782      80482.522      63.260817     -619.72776      8176.6955     -9943.5685      64454.691      18412.824      0              1.6076757     -63408.492      22124.858      1.5275294    
    142500   142500         313.65459      313.65459      80567.768      80492.972      74.795581     -619.89455      8177.844      -9943.8107      64459.784      18417.441      0              1.6076757     -62172.559      22124.858      1.5275294    
    143000   143000         301.51622      301.51622      80564.389      80492.488      71.901007     -617.58107      8172.7051     -9943.6432      64458.565      18420.834      0              1.6076757     -63197.689      22124.858      1.5275294    
    143500   143500         304.94623      304.94623      80565.877      80493.158      72.718943     -621.71231      8180.6012     -9943.8515      64455.34       18421.173      0              1.6076757     -62846.979      22124.858      1.5275294    
    144000   144000         305.46117      305.46117      80559.461      80486.619      72.841737     -621.5173       8177.7256     -9943.9142      64454.548      18418.169      0              1.6076757     -62657.2        22124.858      1.5275294    
    144500   144500         279.11878      279.11878      80552.231      80485.671      66.560005     -621.75122      8178.9351     -9944.1287      64458.959      18412.049      0              1.6076757     -63083.669      22124.858      1.5275294    
    145000   145000         271.41712      271.41712      80552.214      80487.491      64.723431     -621.69215      8179.7621     -9944.2499      64455.146      18416.917      0              1.6076757     -62655.703      22124.858      1.5275294    
    145500   145500         292.75946      292.75946      80565.583      80495.77       69.812827     -619.58567      8174.5711     -9944.0674      64460.253      18422.992      0              1.6076757     -63021.98       22124.858      1.5275294    
    146000   146000         299.9747       299.9747       80565.899      80494.366      71.533409     -620.59118      8180.4011     -9944.4493      64461.488      18415.91       0              1.6076757     -62744.77       22124.858      1.5275294    
    146500   146500         267.99848      267.99848      80540.423      80476.515      63.908205     -621.4111       8176.5033     -9944.2971      64455.249      18408.862      0              1.6076757     -62753.323      22124.858      1.5275294    
    147000   147000         301.93939      301.93939      80550.043      80478.041      72.001918     -621.30811      8178.3554     -9943.6567      64453.472      18409.571      0              1.6076757     -62841.573      22124.858      1.5275294    
    147500   147500         306.06276      306.06276      80556.496      80483.511      72.985196     -621.61798      8180.2087     -9944.4478      64453.931      18413.829      0              1.6076757     -62643.221      22124.858      1.5275294    
    148000   148000         306.84636      306.84636      80561.864      80488.692      73.172056     -619.82456      8175.7499     -9944.0206      64459.526      18415.653      0              1.6076757     -63054.511      22124.858      1.5275294    
    148500   148500         313.95545      313.95545      80566.692      80491.824      74.867324     -622.84245      8179.8455     -9944.678       64465.128      18412.763      0              1.6076757     -62332.672      22124.858      1.5275294    
    149000   149000         276.96517      276.96517      80554.456      80488.409      66.046445     -621.60157      8179.6098     -9944.1578      64461.537      18411.414      0              1.6076757     -63528.589      22124.858      1.5275294    
    149500   149500         254.01678      254.01678      80557.111      80496.537      60.574063     -620.84893      8175.6525     -9944.1113      64461.837      18422.4        0              1.6076757     -61891.319      22124.858      1.5275294    
    150000   150000         241.41822      241.41822      80557.126      80499.557      57.569748     -620.17696      8178.2104     -9944.0139      64466.938      18416.992      0              1.6076757     -64194.58       22124.858      1.5275294    
    150500   150500         278.56616      278.56616      80570.524      80504.095      66.428224     -622.50624      8178.4394     -9943.9839      64467.857      18422.681      0              1.6076757     -61550.485      22124.858      1.5275294    
    151000   151000         290.23335      290.23335      80567.541      80498.331      69.21044      -619.07328      8174.3048     -9944.0242      64470.596      18414.919      0              1.6076757     -63896.698      22124.858      1.5275294    
    151500   151500         245.81217      245.81217      80557.742      80499.124      58.617552     -622.30076      8181.1812     -9944.3945      64466.598      18416.432      0              1.6076757     -62084.234      22124.858      1.5275294    
    152000   152000         231.51436      231.51436      80551.204      80495.996      55.208027     -620.74244      8175.2303     -9944.1757      64463.86       18420.217      0              1.6076757     -63562.027      22124.858      1.5275294    
    152500   152500         311.86762      311.86762      80564.523      80490.153      74.369451     -619.60611      8178.3521     -9944.6552      64457.879      18416.576      0              1.6076757     -62394.477      22124.858      1.5275294    
    153000   153000         367.96086      367.96086      80564.393      80476.647      87.745713     -621.81237      8178.9673     -9944.1499      64451.945      18410.089      0              1.6076757     -62920.235      22124.858      1.5275294    
    153500   153500         378.354        378.354        80571.479      80481.254      90.224113     -621.44614      8177.1022     -9944.5413      64457.696      18410.836      0              1.6076757     -62610.218      22124.858      1.5275294    
    154000   154000         333.64074      333.64074      80561.746      80482.185      79.561574     -620.6171       8179.6514     -9944.4754      64453.025      18412.993      0              1.6076757     -62792.956      22124.858      1.5275294    
    154500   154500         316.78073      316.78073      80551.083      80475.542      75.541055     -620.69355      8176.8789     -9944.5889      64450.624      18411.714      0              1.6076757     -62826.955      22124.858      1.5275294    
    155000   155000         296.66089      296.66089      80559.902      80489.159      70.743182     -621.40904      8179.3315     -9944.4145      64463.172      18410.872      0              1.6076757     -62623.504      22124.858      1.5275294    
    155500   155500         280.15442      280.15442      80560.746      80493.939      66.806968     -621.01738      8176.6991     -9944.3187      64463.729      18417.24       0              1.6076757     -63112.725      22124.858      1.5275294    
    156000   156000         252.46402      252.46402      80559.584      80499.38       60.203784     -619.97682      8177.055      -9944.6263      64464.428      18420.893      0              1.6076757     -62549.699      22124.858      1.5275294    
    156500   156500         263.76447      263.76447      80570.994      80508.095      62.898542     -620.0154       8178.2945     -9944.1998      64473.376      18419.033      0              1.6076757     -63376.602      22124.858      1.5275294    
    157000   157000         307.22091      307.22091      80570.33       80497.069      73.261375     -621.81939      8177.8888     -9944.4793      64466.613      18417.257      0              1.6076757     -62430.216      22124.858      1.5275294    
    157500   157500         314.61679      314.61679      80550.035      80475.01       75.025032     -619.97808      8176.6034     -9944.3479      64454.025      18407.1        0              1.6076757     -62915.914      22124.858      1.5275294    
    158000   158000         316.65382      316.65382      80548.122      80472.611      75.510792     -620.30227      8176.2952     -9944.3514      64449.93       18409.431      0              1.6076757     -62689.315      22124.858      1.5275294    
    158500   158500         349.24096      349.24096      80566.166      80482.885      83.281678     -621.69005      8179.2148     -9944.6229      64452.429      18415.946      0              1.6076757     -62709.181      22124.858      1.5275294    
    159000   159000         353.41109      353.41109      80571.082      80486.806      84.276105     -621.87537      8180.2751     -9944.4396      64456.731      18414.507      0              1.6076757     -62900.479      22124.858      1.5275294    
    159500   159500         323.04168      323.04168      80560.237      80483.203      77.034072     -621.13635      8177.2202     -9944.5152      64460.648      18409.378      0              1.6076757     -62669.887      22124.858      1.5275294    
    160000   160000         306.72056      306.72056      80561.106      80487.964      73.142059     -620.29159      8178.6944     -9944.4973      64464.843      18407.607      0              1.6076757     -62699.896      22124.858      1.5275294    
    160500   160500         293.69369      293.69369      80572.999      80502.963      70.035608     -621.18799      8177.5211     -9944.4243      64471.567      18417.879      0              1.6076757     -62960.619      22124.858      1.5275294    
    161000   161000         249.29317      249.29317      80564.329      80504.882      59.447647     -620.94275      8177.3847     -9944.3305      64472.524      18418.639      0              1.6076757     -62835.25       22124.858      1.5275294    
    161500   161500         264.11507      264.11507      80560.615      80497.633      62.982149     -616.96337      8172.4682     -9944.2378      64471.188      18413.571      0              1.6076757     -62681.094      22124.858      1.5275294    
    162000   162000         235.87599      235.87599      80541.916      80485.668      56.248122     -620.07588      8177.7909     -9944.8914      64462.667      18408.57       0              1.6076757     -63068.793      22124.858      1.5275294    
    162500   162500         282.29164      282.29164      80574.319      80507.003      67.316621     -621.82049      8177.027      -9943.7134      64471.524      18422.378      0              1.6076757     -62590.261      22124.858      1.5275294    
    163000   163000         279.35681      279.35681      80566.176      80499.559      66.616766     -621.89247      8181.0281     -9944.9306      64469.152      18414.594      0              1.6076757     -62967.572      22124.858      1.5275294    
    163500   163500         294.50103      294.50103      80561.333      80491.105      70.22813      -619.44392      8175.273      -9944.1216      64466.919      18410.871      0              1.6076757     -62975.345      22124.858      1.5275294    
    164000   164000         280.94236      280.94236      80552.073      80485.078      66.994865     -619.7484       8177.7348     -9944.6124      64464.331      18405.766      0              1.6076757     -62206.693      22124.858      1.5275294    
    164500   164500         281.60028      281.60028      80554.086      80486.934      67.151755     -620.23455      8175.3167     -9944.1968      64465.459      18408.982      0              1.6076757     -63348.262      22124.858      1.5275294    
    165000   165000         281.19841      281.19841      80563.591      80496.535      67.055924     -622.60764      8180.1553     -9944.4128      64465.476      18416.317      0              1.6076757     -62401.248      22124.858      1.5275294    
    165500   165500         279.73934      279.73934      80555.769      80489.061      66.707988     -622.75869      8179.8993     -9944.246       64457.325      18417.234      0              1.6076757     -63106.795      22124.858      1.5275294    
    166000   166000         252.87133      252.87133      80546.792      80486.491      60.300913     -619.51305      8174.2389     -9944.3132      64458.647      18415.824      0              1.6076757     -63001.429      22124.858      1.5275294    
    166500   166500         260.60821      260.60821      80557.386      80495.24       62.145887     -621.3548       8181.0776     -9944.6011      64467.875      18410.636      0              1.6076757     -62362.408      22124.858      1.5275294    
    167000   167000         278.96627      278.96627      80562.483      80495.959      66.523637     -619.15813      8173.3868     -9944.5532      64474.184      18410.491      0              1.6076757     -63432.066      22124.858      1.5275294    
    167500   167500         264.92703      264.92703      80548.869      80485.694      63.175772     -622.05184      8181.2952     -9944.1795      64464.129      18404.893      0              1.6076757     -62108.303      22124.858      1.5275294    
    168000   168000         282.12923      282.12923      80552.344      80485.067      67.277892     -620.0654       8174.3616     -9944.3811      64461.121      18412.423      0              1.6076757     -63337.674      22124.858      1.5275294    
    168500   168500         276.3588       276.3588       80556.438      80490.536      65.901847     -622.61965      8182.1108     -9944.5184      64458.498      18415.457      0              1.6076757     -62375.532      22124.858      1.5275294    
    169000   169000         297.21021      297.21021      80560.79       80489.916      70.874174     -619.95729      8176.2031     -9944.4521      64452.684      18423.831      0              1.6076757     -63628.595      22124.858      1.5275294    
    169500   169500         317.06491      317.06491      80567.679      80492.07       75.608822     -621.3471       8180.7772     -9944.1136      64446.941      18428.205      0              1.6076757     -62171.084      22124.858      1.5275294    
    170000   170000         374.66058      374.66058      80567.226      80477.883      89.343362     -621.28105      8178.3278     -9944.8379      64446.024      18418.042      0              1.6076757     -63166.341      22124.858      1.5275294    
    170500   170500         370.99959      370.99959      80554.944      80466.473      88.470345     -620.18803      8175.8524     -9944.3119      64439.393      18414.12       0              1.6076757     -63203.741      22124.858      1.5275294    
    171000   171000         361.35838      361.35838      80567.837      80481.666      86.171256     -622.83972      8183.9095     -9944.8783      64450.401      18413.465      0              1.6076757     -61632.694      22124.858      1.5275294    
    171500   171500         380.53232      380.53232      80572.318      80481.574      90.743564     -621.0833       8175.5677     -9944.18        64456.874      18412.788      0              1.6076757     -63830.19       22124.858      1.5275294    
    172000   172000         379.3652       379.3652       80575.416      80484.95       90.465248     -620.94472      8180.9553     -9944.6746      64453.757      18414.25       0              1.6076757     -62257.754      22124.858      1.5275294    
    172500   172500         340.86234      340.86234      80563.166      80481.882      81.28367      -621.51677      8177.1215     -9944.426       64458.789      18410.307      0              1.6076757     -62392.29       22124.858      1.5275294    
    173000   173000         300.16062      300.16062      80556.434      80484.856      71.577745     -619.27264      8176.2149     -9944.8357      64464.577      18406.565      0              1.6076757     -63589.633      22124.858      1.5275294    
    173500   173500         282.61441      282.61441      80567.468      80500.075      67.393591     -621.92216      8182.0245     -9944.5324      64469.979      18412.918      0              1.6076757     -61774.821      22124.858      1.5275294    
    174000   174000         282.56011      282.56011      80565.015      80497.635      67.380641     -620.52743      8175.6477     -9944.5942      64469.508      18415.993      0              1.6076757     -63694.303      22124.858      1.5275294    
    174500   174500         264.67956      264.67956      80552.697      80489.581      63.116759     -622.62728      8181.8598     -9944.8042      64462.331      18411.213      0              1.6076757     -62489.551      22124.858      1.5275294    
    175000   175000         294.4864       294.4864       80557.895      80487.67       70.224641     -619.49116      8173.0841     -9944.1292      64461.628      18414.971      0              1.6076757     -62733.872      22124.858      1.5275294    
    175500   175500         369.49126      369.49126      80574.441      80486.33       88.110661     -620.36808      8181.6835     -9944.9515      64460.848      18407.51       0              1.6076757     -62947.074      22124.858      1.5275294    
    176000   176000         365.38307      365.38307      80570.109      80482.978      87.131002     -621.02661      8177.2137     -9945.0339      64458.532      18411.685      0              1.6076757     -62558.32       22124.858      1.5275294    
    176500   176500         312.64448      312.64448      80555.155      80480.6        74.554705     -622.68424      8181.7406     -9945.1291      64458.649      18406.417      0              1.6076757     -62721.463      22124.858      1.5275294    
    177000   177000         295.46021      295.46021      80554.159      80483.702      70.456862     -621.58462      8180.2564     -9945.4251      64459.324      18409.523      0              1.6076757     -62853.556      22124.858      1.5275294    
    177500   177500         323.93789      323.93789      80568.484      80491.236      77.247785     -622.23409      8180.5653     -9945.1986      64466.17       18410.325      0              1.6076757     -62941.813      22124.858      1.5275294    
    178000   178000         308.47147      308.47147      80570.122      80496.562      73.559589     -620.71346      8179.3564     -9944.9309      64472.169      18409.073      0              1.6076757     -62346.025      22124.858      1.5275294    
    178500   178500         266.60513      266.60513      80551.265      80487.689      63.575941     -620.45717      8176.5688     -9945.0106      64467.417      18407.564      0              1.6076757     -63172.61       22124.858      1.5275294    
    179000   179000         263.58397      263.58397      80557.152      80494.296      62.855501     -621.85486      8181.3621     -9944.8319      64472.571      18405.442      0              1.6076757     -62556.966      22124.858      1.5275294    
    179500   179500         298.18322      298.18322      80566.478      80495.372      71.106202     -620.63209      8177.0707     -9944.9185      64470.412      18411.832      0              1.6076757     -62852.777      22124.858      1.5275294    
    180000   180000         289.13734      289.13734      80564.008      80495.059      68.949079     -621.97473      8182.256      -9945.0761      64468.488      18409.758      0              1.6076757     -62799.406      22124.858      1.5275294    
    180500   180500         255.62095      255.62095      80555.071      80494.115      60.956599     -620.80835      8176.1382     -9944.6013      64467.524      18414.255      0              1.6076757     -62964.64       22124.858      1.5275294    
    181000   181000         290.2917       290.2917       80556.785      80487.56       69.224353     -621.51914      8181.7552     -9945.3845      64462.999      18408.102      0              1.6076757     -62751.425      22124.858      1.5275294    
    181500   181500         333.04927      333.04927      80569.404      80489.984      79.42053      -619.74103      8174.6497     -9944.7815      64462.634      18415.615      0              1.6076757     -62725.425      22124.858      1.5275294    
    182000   182000         341.38718      341.38718      80573.691      80492.282      81.408827     -621.93467      8183.2138     -9945.2951      64464.039      18410.651      0              1.6076757     -62489.806      22124.858      1.5275294    
    182500   182500         327.58511      327.58511      80580.67       80502.552      78.117519     -619.02505      8173.3118     -9944.8391      64472.507      18418.989      0              1.6076757     -63730.913      22124.858      1.5275294    
    183000   183000         267.84603      267.84603      80563.41       80499.538      63.871851     -622.42945      8182.7404     -9944.6982      64464.954      18417.363      0              1.6076757     -61753.695      22124.858      1.5275294    
    183500   183500         289.67878      289.67878      80559.365      80490.287      69.078193     -622.0735       8177.1781     -9945.0394      64463.035      18415.579      0              1.6076757     -63843.467      22124.858      1.5275294    
    184000   184000         277.30388      277.30388      80553.885      80487.758      66.127216     -621.6526       8180.3032     -9944.9846      64460.688      18411.796      0              1.6076757     -62246.086      22124.858      1.5275294    
    184500   184500         293.37356      293.37356      80560.793      80490.834      69.95927      -621.68589      8179.5347     -9945.0879      64463.24       18413.226      0              1.6076757     -63171.224      22124.858      1.5275294    
    185000   185000         333.60032      333.60032      80565.176      80485.624      79.551936     -622.00634      8180.687      -9945.2439      64458.832      18411.748      0              1.6076757     -62530.055      22124.858      1.5275294    
    185500   185500         373.7316       373.7316       80583.873      80494.751      89.121833     -620.04683      8177.8164     -9944.7915      64457.503      18422.663      0              1.6076757     -63091.628      22124.858      1.5275294    
    186000   186000         315.54764      315.54764      80563.422      80488.175      75.247006     -621.20707      8179.5334     -9945.2968      64453.765      18419.772      0              1.6076757     -62609.719      22124.858      1.5275294    
    186500   186500         322.22551      322.22551      80555.613      80478.773      76.839442     -619.80911      8177.7951     -9944.7642      64448.221      18415.723      0              1.6076757     -62979.178      22124.858      1.5275294    
    187000   187000         359.94612      359.94612      80565.284      80479.449      85.834481     -623.41027      8181.8792     -9945.0137      64448.15       18416.236      0              1.6076757     -62956.177      22124.858      1.5275294    
    187500   187500         339.00079      339.00079      80573.53       80492.691      80.839758     -622.92806      8180.9462     -9944.4012      64459.578      18417.888      0              1.6076757     -62386.745      22124.858      1.5275294    
    188000   188000         282.38489      282.38489      80563.283      80495.944      67.338858     -620.48311      8178.4204     -9945.1188      64463.12       18418.398      0              1.6076757     -63539.965      22124.858      1.5275294    
    188500   188500         255.47054      255.47054      80551.444      80490.523      60.920733     -622.79689      8180.6678     -9945.2499      64458.184      18418.11       0              1.6076757     -62306.004      22124.858      1.5275294    
    189000   189000         286.90644      286.90644      80562.057      80493.64       68.417087     -621.684        8180.3822     -9944.498       64464.167      18413.666      0              1.6076757     -63428.968      22124.858      1.5275294    
    189500   189500         296.74337      296.74337      80573.161      80502.398      70.76285      -622.35299      8178.5185     -9944.9001      64465.777      18423.748      0              1.6076757     -62476.648      22124.858      1.5275294    
    190000   190000         287.83771      287.83771      80561.248      80492.609      68.639162     -621.45171      8181.0197     -9944.6327      64461.16       18414.906      0              1.6076757     -63138.299      22124.858      1.5275294    
    190500   190500         304.61516      304.61516      80559.727      80487.087      72.639994     -619.43648      8174.993      -9944.833       64452.043      18422.713      0              1.6076757     -62867.008      22124.858      1.5275294    
    191000   191000         305.51964      305.51964      80555.315      80482.459      72.855681     -620.27358      8179.8129     -9944.4969      64450.751      18415.058      0              1.6076757     -62542.857      22124.858      1.5275294    
    191500   191500         296.92402      296.92402      80553.29       80482.484      70.805927     -620.09136      8175.4941     -9944.6548      64454.99       18415.139      0              1.6076757     -63274.386      22124.858      1.5275294    
    192000   192000         323.88911      323.88911      80561.079      80483.843      77.236154     -620.02335      8178.8014     -9944.6383      64457.803      18410.292      0              1.6076757     -62229.322      22124.858      1.5275294    
    192500   192500         340.56488      340.56488      80568.246      80487.033      81.212737     -622.19499      8179.3722     -9944.6101      64462.578      18410.28       0              1.6076757     -63269.754      22124.858      1.5275294    
    193000   193000         308.2875       308.2875       80562.157      80488.642      73.515718     -620.73393      8178.561      -9944.5952      64462.171      18411.631      0              1.6076757     -62147.664      22124.858      1.5275294    
    193500   193500         282.49822      282.49822      80559.09       80491.724      67.365884     -621.09671      8178.1573     -9944.2131      64462.357      18414.912      0              1.6076757     -63724.44       22124.858      1.5275294    
    194000   194000         253.49629      253.49629      80549.723      80489.273      60.449943     -621.84516      8179.3361     -9944.5998      64457.434      18417.341      0              1.6076757     -61772.147      22124.858      1.5275294    
    194500   194500         287.1475       287.1475       80559.56       80491.085      68.474572     -620.16411      8176.7328     -9944.4294      64467.128      18410.21       0              1.6076757     -64122.841      22124.858      1.5275294    
    195000   195000         300.76365      300.76365      80572.426      80500.704      71.721544     -621.09862      8179.041      -9944.9779      64469.421      18416.711      0              1.6076757     -61498.515      22124.858      1.5275294    
    195500   195500         281.71701      281.71701      80564.039      80496.86       67.179592     -620.67355      8177.3271     -9944.5095      64472.627      18410.481      0              1.6076757     -63820.315      22124.858      1.5275294    
    196000   196000         267.25983      267.25983      80559.421      80495.689      63.732063     -621.08347      8179.0767     -9944.8459      64466.941      18413.992      0              1.6076757     -62232.678      22124.858      1.5275294    
    196500   196500         266.67851      266.67851      80554.204      80490.61       63.593438     -621.38305      8177.3656     -9944.4782      64461.498      18416          0              1.6076757     -63118.427      22124.858      1.5275294    
    197000   197000         273.5617       273.5617       80552.584      80487.349      65.234837     -621.51035      8178.6826     -9944.9053      64458.855      18414.619      0              1.6076757     -62863.639      22124.858      1.5275294    
    197500   197500         285.20717      285.20717      80550.48       80482.468      68.011872     -621.22613      8178.6776     -9944.5869      64453.067      18414.929      0              1.6076757     -62723.972      22124.858      1.5275294    
    198000   198000         300.1646       300.1646       80546.29       80474.712      71.578694     -621.75173      8179.499      -9945.0073      64449.045      18411.319      0              1.6076757     -62996.023      22124.858      1.5275294    
    198500   198500         338.3586       338.3586       80560.371      80479.685      80.686616     -621.81901      8178.8068     -9944.7523      64447.901      18417.94       0              1.6076757     -62741.778      22124.858      1.5275294    
    199000   199000         336.31194      336.31194      80565.191      80484.993      80.198562     -623.32299      8181.6639     -9944.8777      64451.156      18418.766      0              1.6076757     -62775.035      22124.858      1.5275294    
    199500   199500         278.07095      278.07095      80553.729      80487.419      66.310135     -621.62075      8178.7341     -9944.9041      64456.013      18417.589      0              1.6076757     -63219.169      22124.858      1.5275294    
    200000   200000         235.75736      235.75736      80542.959      80486.739      56.219834     -620.9876       8178.6022     -9945.3618      64457.821      18415.058      0              1.6076757     -62482.472      22124.858      1.5275294    
    200500   200500         245.97134      245.97134      80550.041      80491.386      58.655507     -621.74183      8180.3786     -9944.6922      64465.829      18410.005      0              1.6076757     -63395.825      22124.858      1.5275294    
    201000   201000         291.74348      291.74348      80560.48       80490.909      69.570552     -620.85117      8177.2754     -9945.1121      64468.075      18409.914      0              1.6076757     -62094.258      22124.858      1.5275294    
    201500   201500         319.61821      319.61821      80570.639      80494.421      76.217694     -622.05819      8182.0268     -9944.7207      64470.459      18407.107      0              1.6076757     -63523.328      22124.858      1.5275294    
    202000   202000         337.84707      337.84707      80571.831      80491.266      80.564635     -619.95998      8177.563      -9945.1941      64462.892      18414.358      0              1.6076757     -61980.041      22124.858      1.5275294    
    202500   202500         342.52465      342.52465      80570.03       80488.35       81.680074     -620.80289      8179.4462     -9945.2717      64459.102      18414.268      0              1.6076757     -63519.869      22124.858      1.5275294    
    203000   203000         289.7046       289.7046       80555.167      80486.082      69.08435      -621.88545      8177.5389     -9945.0992      64452.016      18421.904      0              1.6076757     -62512.468      22124.858      1.5275294    
    203500   203500         281.21405      281.21405      80552.572      80485.512      67.059654     -623.66091      8184.3311     -9945.3696      64451.156      18417.448      0              1.6076757     -62973.346      22124.858      1.5275294    
    204000   204000         335.49229      335.49229      80561.616      80481.613      80.003104     -621.14695      8177.7089     -9945.3738      64454.561      18414.257      0              1.6076757     -63076.477      22124.858      1.5275294    
    204500   204500         364.46115      364.46115      80576.34       80489.429      86.911158     -624.86335      8185.8632     -9945.6686      64457.957      18414.533      0              1.6076757     -62490.541      22124.858      1.5275294    
    205000   205000         334.35029      334.35029      80570.653      80490.922      79.730776     -623.00413      8181.7609     -9945.534       64460.01       18416.081      0              1.6076757     -63171.962      22124.858      1.5275294    
    205500   205500         318.63104      318.63104      80566.195      80490.213      75.982289     -622.1427       8182.988      -9945.7972      64461.089      18412.469      0              1.6076757     -62604.586      22124.858      1.5275294    
    206000   206000         299.78535      299.78535      80554.619      80483.131      71.488255     -623.57178      8181.0852     -9946.0219      64457.057      18412.974      0              1.6076757     -63043.296      22124.858      1.5275294    
    206500   206500         282.79767      282.79767      80553.961      80486.523      67.43729      -624.2424       8184.4777     -9945.5885      64457.941      18412.328      0              1.6076757     -62845.719      22124.858      1.5275294    
    207000   207000         317.57633      317.57633      80564.505      80488.774      75.730777     -622.42404      8181.2735     -9945.6276      64458.815      18415.13       0              1.6076757     -62845.125      22124.858      1.5275294    
    207500   207500         340.69556      340.69556      80563.818      80482.575      81.243899     -621.35313      8181.3286     -9945.2839      64459.468      18406.807      0              1.6076757     -62875.621      22124.858      1.5275294    
    208000   208000         303.79334      303.79334      80551.753      80479.309      72.444019     -623.30238      8180.9822     -9945.4259      64457.517      18407.931      0              1.6076757     -62514.737      22124.858      1.5275294    
    208500   208500         275.16371      275.16371      80552.086      80486.47       65.61686      -624.70916      8184.3627     -9945.547       64459.081      18411.675      0              1.6076757     -63302.853      22124.858      1.5275294    
    209000   209000         250.95162      250.95162      80555.934      80496.091      59.843129     -623.10629      8180.7494     -9945.7646      64463.06       18419.545      0              1.6076757     -62683.416      22124.858      1.5275294    
    209500   209500         255.61265      255.61265      80561.354      80500.4        60.954621     -623.47831      8184.3807     -9945.7584      64467.868      18415.78       0              1.6076757     -63018.389      22124.858      1.5275294    
    210000   210000         276.79532      276.79532      80567.978      80501.972      66.005941     -624.63215      8184.5758     -9946.2774      64471.157      18415.541      0              1.6076757     -63228.3        22124.858      1.5275294    
    210500   210500         334.53197      334.53197      80585.997      80506.223      79.7741       -622.79288      8182.8652     -9945.1484      64474.272      18415.419      0              1.6076757     -62412.372      22124.858      1.5275294    
    211000   211000         286.43303      286.43303      80552.685      80484.381      68.304197     -621.89976      8180.7297     -9945.9107      64461.684      18408.17       0              1.6076757     -63252.603      22124.858      1.5275294    
    211500   211500         309.3269       309.3269       80558.614      80484.85       73.763579     -623.85814      8182.7314     -9945.4056      64457.682      18412.093      0              1.6076757     -62302.078      22124.858      1.5275294    
    212000   212000         367.4316       367.4316       80578.843      80491.224      87.619505     -621.94626      8181.2373     -9945.76        64460.276      18415.808      0              1.6076757     -63638.557      22124.858      1.5275294    
    212500   212500         368.14957      368.14957      80577.375      80489.584      87.790715     -623.23864      8182.6645     -9945.2348      64453.198      18420.588      0              1.6076757     -61772.338      22124.858      1.5275294    
    213000   213000         350.9452       350.9452       80570.718      80487.03       83.688078     -624.68574      8182.9382     -9945.4121      64456.505      18416.076      0              1.6076757     -64034.125      22124.858      1.5275294    
    213500   213500         330.22544      330.22544      80566.298      80487.551      78.747146     -622.75846      8181.5932     -9945.2621      64455.706      18416.665      0              1.6076757     -62038.023      22124.858      1.5275294    
    214000   214000         287.39765      287.39765      80555.945      80487.411      68.534225     -621.60403      8179.204      -9945.2947      64458.517      18414.981      0              1.6076757     -63200.735      22124.858      1.5275294    
    214500   214500         256.60276      256.60276      80544.605      80483.414      61.190728     -623.77651      8181.5693     -9945.4033      64463.318      18406.099      0              1.6076757     -62839.955      22124.858      1.5275294    
    215000   215000         255.45814      255.45814      80552.176      80491.259      60.917776     -622.56601      8181.2675     -9945.2413      64470.029      18406.162      0              1.6076757     -62759.009      22124.858      1.5275294    
    215500   215500         253.86294      253.86294      80563.388      80502.851      60.537377     -623.24402      8180.4224     -9945.0634      64476.109      18413.019      0              1.6076757     -62943.201      22124.858      1.5275294    
    216000   216000         253.08848      253.08848      80570.765      80510.413      60.352696     -622.27987      8182.6243     -9945.7019      64476.177      18417.986      0              1.6076757     -62839.705      22124.858      1.5275294    
    216500   216500         268.38322      268.38322      80555.653      80491.653      63.999953     -622.415        8179.1345     -9945.2129      64464.803      18413.736      0              1.6076757     -62912.267      22124.858      1.5275294    
    217000   217000         313.02619      313.02619      80552.57       80477.924      74.645729     -624.03161      8183.2277     -9945.6104      64455.946      18406.784      0              1.6076757     -62977.244      22124.858      1.5275294    
    217500   217500         342.79382      342.79382      80563.229      80481.484      81.744261     -622.34613      8178.5637     -9945.4255      64456.916      18412.168      0              1.6076757     -62429.376      22124.858      1.5275294    
    218000   218000         344.6026       344.6026       80569.933      80487.757      82.175592     -621.03357      8180.8683     -9945.2001      64460.202      18411.313      0              1.6076757     -63183.677      22124.858      1.5275294    
    218500   218500         300.50671      300.50671      80557.987      80486.327      71.660273     -622.93218      8178.8059     -9945.6329      64456.673      18417.805      0              1.6076757     -62539.752      22124.858      1.5275294    
    219000   219000         291.93202      291.93202      80547.548      80477.933      69.615512     -621.95604      8180.0822     -9944.8513      64455.538      18407.512      0              1.6076757     -63018.714      22124.858      1.5275294    
    219500   219500         309.32019      309.32019      80555.783      80482.021      73.761978     -622.77981      8179.5651     -9945.8143      64460.88       18408.562      0              1.6076757     -62719.262      22124.858      1.5275294    
    220000   220000         304.63547      304.63547      80564.429      80491.785      72.644837     -623.05367      8182.9711     -9944.923       64463.385      18411.798      0              1.6076757     -62648.992      22124.858      1.5275294    
    220500   220500         298.65877      298.65877      80554.943      80483.723      71.219606     -622.49695      8177.7678     -9945.3794      64461.44       18410.784      0              1.6076757     -63156.099      22124.858      1.5275294    
    221000   221000         288.29705      288.29705      80548.042      80479.294      68.748701     -619.80642      8178.8163     -9945.1709      64457.277      18406.57       0              1.6076757     -62435.778      22124.858      1.5275294    
    221500   221500         281.62946      281.62946      80562.945      80495.786      67.158713     -621.12838      8178.2425     -9944.9772      64464.101      18417.941      0              1.6076757     -63153.486      22124.858      1.5275294    
    222000   222000         274.3526       274.3526       80566.933      80501.509      65.42344      -623.94166      8182.4066     -9944.8621      64466.745      18419.553      0              1.6076757     -62726.007      22124.858      1.5275294    
    222500   222500         313.31755      313.31755      80573.389      80498.674      74.715207     -623.46848      8180.1015     -9945.4634      64468.162      18417.735      0              1.6076757     -62981.463      22124.858      1.5275294    
    223000   223000         263.36144      263.36144      80560.142      80497.339      62.802434     -619.76149      8179.8813     -9944.7609      64465.868      18414.505      0              1.6076757     -62984.787      22124.858      1.5275294    
    223500   223500         247.60208      247.60208      80563.437      80504.393      59.044381     -621.07693      8178.8544     -9946.0342      64469.128      18421.914      0              1.6076757     -62803.249      22124.858      1.5275294    
    224000   224000         310.15483      310.15483      80570.297      80496.336      73.96101      -622.2551       8182.0453     -9944.9761      64470.433      18409.482      0              1.6076757     -62913.12       22124.858      1.5275294    
    224500   224500         294.70293      294.70293      80561.758      80491.481      70.276275     -623.93196      8181.9181     -9945.6949      64465.274      18412.309      0              1.6076757     -62718.751      22124.858      1.5275294    
    225000   225000         270.27667      270.27667      80553.945      80489.494      64.451473     -623.20842      8181.2029     -9945.12        64461.372      18413.64       0              1.6076757     -63150.634      22124.858      1.5275294    
    225500   225500         317.69345      317.69345      80562.538      80486.779      75.758706     -621.59343      8178.6753     -9945.2904      64460.921      18412.459      0              1.6076757     -62632.031      22124.858      1.5275294    
    226000   226000         367.75246      367.75246      80571.186      80483.49       87.696019     -620.84802      8178.5437     -9945.2245      64458.741      18410.67       0              1.6076757     -62589.187      22124.858      1.5275294    
    226500   226500         350.83086      350.83086      80559.145      80475.484      83.660813     -622.54396      8181.6118     -9945.4159      64449.877      18410.347      0              1.6076757     -63170.037      22124.858      1.5275294    
    227000   227000         311.72172      311.72172      80556.331      80481.996      74.33466      -623.55284      8179.4024     -9945.2425      64450.983      18418.798      0              1.6076757     -62453.269      22124.858      1.5275294    
    227500   227500         315.05711      315.05711      80560.612      80485.482      75.130031     -621.95844      8181.7805     -9945.3562      64459.357      18410.052      0              1.6076757     -63120.439      22124.858      1.5275294    
    228000   228000         357.05102      357.05102      80586.893      80501.749      85.144103     -622.12091      8180.3119     -9945.0807      64465.594      18421.437      0              1.6076757     -62619.069      22124.858      1.5275294    
    228500   228500         280.28841      280.28841      80558.746      80491.907      66.83892      -622.82715      8181.3207     -9945.3231      64460.061      18417.068      0              1.6076757     -63092.138      22124.858      1.5275294    
    229000   229000         306.94155      306.94155      80552.986      80479.791      73.194756     -622.00783      8179.4258     -9945.2127      64452.683      18413.295      0              1.6076757     -62814.873      22124.858      1.5275294    
    229500   229500         341.35452      341.35452      80557.879      80476.478      81.401039     -623.34564      8182.9732     -9945.4338      64457.138      18403.539      0              1.6076757     -62673.94       22124.858      1.5275294    
    230000   230000         335.62079      335.62079      80568.189      80488.155      80.033746     -622.71279      8179.5871     -9945.2006      64461.251      18413.623      0              1.6076757     -62773          22124.858      1.5275294    
    230500   230500         295.52642      295.52642      80548.718      80478.245      70.472649     -622.36615      8182.1454     -9945.3002      64456.592      18405.566      0              1.6076757     -62743.268      22124.858      1.5275294    
    231000   231000         295.40606      295.40606      80549.377      80478.933      70.443948     -620.32495      8176.3667     -9945.2549      64460.871      18405.668      0              1.6076757     -63093.641      22124.858      1.5275294    
    231500   231500         293.41734      293.41734      80568.451      80498.481      69.969709     -622.13284      8180.1609     -9944.9421      64465.269      18418.519      0              1.6076757     -62036.699      22124.858      1.5275294    
    232000   232000         283.99029      283.99029      80568.514      80500.793      67.72169      -621.50012      8177.6186     -9944.5862      64468.636      18419.017      0              1.6076757     -63960.448      22124.858      1.5275294    
    232500   232500         307.96596      307.96596      80568.661      80495.222      73.439042     -618.76375      8176.1932     -9944.6102      64469.337      18411.457      0              1.6076757     -61583.756      22124.858      1.5275294    
    233000   233000         309.77165      309.77165      80562.91       80489.041      73.869636     -620.44526      8177.0713     -9944.8637      64464.399      18411.271      0              1.6076757     -63831.848      22124.858      1.5275294    
    233500   233500         271.34118      271.34118      80552.874      80488.168      64.705321     -621.4679       8177.123      -9944.4099      64457.897      18417.419      0              1.6076757     -62066.108      22124.858      1.5275294    
    234000   234000         325.84843      325.84843      80559.121      80481.418      77.703382     -621.70949      8178.867      -9944.7149      64460.357      18407.011      0              1.6076757     -63063.489      22124.858      1.5275294    
    234500   234500         339.36431      339.36431      80564.054      80483.128      80.926445     -622.43704      8181.425      -9944.9183      64455.746      18411.704      0              1.6076757     -62750.085      22124.858      1.5275294    
    235000   235000         374.9609       374.9609       80582.775      80493.36       89.414979     -617.50903      8173.6716     -9944.246       64457.173      18422.663      0              1.6076757     -62846.837      22124.858      1.5275294    
    235500   235500         363.76148      363.76148      80569.505      80482.761      86.744311     -620.76369      8178.5198     -9945.1679      64456.327      18412.238      0              1.6076757     -62563.75       22124.858      1.5275294    
    236000   236000         311.58273      311.58273      80560.39       80486.088      74.301515     -621.83048      8179.1018     -9944.3953      64457.398      18414.207      0              1.6076757     -62997.33       22124.858      1.5275294    
    236500   236500         263.12469      263.12469      80552.874      80490.128      62.745978     -621.28663      8175.794      -9944.3488      64460.855      18417.507      0              1.6076757     -62703.521      22124.858      1.5275294    
    237000   237000         327.50188      327.50188      80566.626      80488.528      78.097672     -621.53018      8178.696      -9944.6768      64465.953      18408.479      0              1.6076757     -62923.247      22124.858      1.5275294    
    237500   237500         305.11161      305.11161      80564.546      80491.787      72.758379     -620.0609       8179.0662     -9944.5316      64465.149      18410.557      0              1.6076757     -62633.947      22124.858      1.5275294    
    238000   238000         265.58867      265.58867      80557.04       80493.707      63.333549     -620.69567      8174.6356     -9944.9625      64462.838      18420.284      0              1.6076757     -63028.694      22124.858      1.5275294    
    238500   238500         256.37386      256.37386      80533.012      80471.876      61.136143     -622.63057      8180.3851     -9944.6711      64451.855      18405.33       0              1.6076757     -62291.951      22124.858      1.5275294    
    239000   239000         338.7598       338.7598       80569.876      80489.093      80.782289     -621.40747      8179.487      -9945.1867      64463.301      18411.292      0              1.6076757     -63891.212      22124.858      1.5275294    
    239500   239500         296.83962      296.83962      80560.459      80489.673      70.785802     -620.11126      8175.5716     -9944.3781      64457.347      18419.636      0              1.6076757     -61575.152      22124.858      1.5275294    
    240000   240000         304.76656      304.76656      80546.988      80474.312      72.676097     -619.8774       8176.8281     -9944.8592      64454.614      18405.998      0              1.6076757     -63673.042      22124.858      1.5275294    
    240500   240500         322.28508      322.28508      80550.796      80473.943      76.853648     -622.2685       8180.3439     -9944.9452      64453.612      18405.593      0              1.6076757     -62064.149      22124.858      1.5275294    
    241000   241000         321.9835       321.9835       80565.374      80488.593      76.781732     -620.98081      8175.5017     -9944.5045      64456.603      18420.365      0              1.6076757     -63253.992      22124.858      1.5275294    
    241500   241500         321.30376      321.30376      80556.915      80480.295      76.619638     -620.07667      8179.4504     -9945.339       64454.379      18410.274      0              1.6076757     -62619.074      22124.858      1.5275294    
    242000   242000         289.23125      289.23125      80539.488      80470.517      68.971473     -621.13701      8176.3506     -9944.9215      64451.414      18407.204      0              1.6076757     -62691.795      22124.858      1.5275294    
    242500   242500         323.78133      323.78133      80565.069      80487.858      77.210452     -620.60759      8178.9572     -9944.8309      64461.094      18411.638      0              1.6076757     -62826.573      22124.858      1.5275294    
    243000   243000         316.09484      316.09484      80570.323      80494.946      75.377495     -620.70148      8175.2302     -9944.9336      64460.386      18423.357      0              1.6076757     -62965.543      22124.858      1.5275294    
    243500   243500         320.57468      320.57468      80562.19       80485.744      76.445779     -621.34089      8180.79       -9944.8685      64458.003      18411.553      0              1.6076757     -62745.564      22124.858      1.5275294    
    244000   244000         293.34573      293.34573      80553.932      80483.979      69.952633     -619.97668      8173.2819     -9944.7243      64456.227      18417.564      0              1.6076757     -62589.846      22124.858      1.5275294    
    244500   244500         278.31203      278.31203      80557.698      80491.33       66.367624     -620.45694      8178.5305     -9944.9713      64462.286      18414.334      0              1.6076757     -63379.81       22124.858      1.5275294    
    245000   245000         327.11475      327.11475      80571.667      80493.662      78.005355     -621.91839      8177.951      -9944.6403      64466.594      18414.068      0              1.6076757     -62257.394      22124.858      1.5275294    
    245500   245500         322.90242      322.90242      80569.957      80492.956      77.000863     -619.57524      8174.8063     -9944.5893      64466.062      18414.645      0              1.6076757     -63054.915      22124.858      1.5275294    
    246000   246000         305.59202      305.59202      80566.212      80493.339      72.872941     -622.4651       8180.8267     -9944.9568      64458.108      18420.219      0              1.6076757     -62803.417      22124.858      1.5275294    
    246500   246500         312.60274      312.60274      80559.944      80485.4        74.54475      -620.57613      8176.1953     -9945.0509      64454.06       18419.164      0              1.6076757     -62868.65       22124.858      1.5275294    
    247000   247000         337.8715       337.8715       80560.477      80479.907      80.570461     -618.10026      8173.099      -9944.5038      64451.792      18416.012      0              1.6076757     -62860.756      22124.858      1.5275294    
    247500   247500         300.16038      300.16038      80547.677      80476.099      71.577687     -621.01567      8177.9288     -9944.9678      64443.832      18418.714      0              1.6076757     -62696.031      22124.858      1.5275294    
    248000   248000         330.95746      330.95746      80553.033      80474.111      78.921706     -622.87306      8178.9809     -9944.3012      64444.575      18416.122      0              1.6076757     -62895.704      22124.858      1.5275294    
    248500   248500         370.22345      370.22345      80554.589      80466.304      88.285263     -621.78534      8178.2966     -9945.1498      64445.581      18407.754      0              1.6076757     -62573.882      22124.858      1.5275294    
    249000   249000         370.13838      370.13838      80562.274      80474.009      88.264977     -620.63354      8179.5503     -9944.4636      64451.501      18406.447      0              1.6076757     -63105.411      22124.858      1.5275294    
    249500   249500         341.86167      341.86167      80568.33       80486.808      81.521977     -621.55177      8174.9253     -9944.879       64461.122      18415.584      0              1.6076757     -62094.835      22124.858      1.5275294    
    250000   250000         330.77403      330.77403      80559.264      80480.386      78.877964     -620.26785      8178.987      -9944.7789      64463.354      18401.484      0              1.6076757     -63172.88       22124.858      1.5275294    
    250500   250500         277.7308       277.7308       80544.678      80478.449      66.22902      -620.99256      8175.4923     -9944.4835      64459.537      18407.288      0              1.6076757     -62553.716      22124.858      1.5275294    
    251000   251000         284.68748      284.68748      80561.9        80494.012      67.887945     -621.80807      8178.9061     -9944.4495      64465.309      18414.446      0              1.6076757     -62798.081      22124.858      1.5275294    
    251500   251500         322.56759      322.56759      80567.204      80490.283      76.921018     -619.17007      8173.6102     -9944.2593      64465.237      18413.258      0              1.6076757     -62884.022      22124.858      1.5275294    
    252000   252000         349.82194      349.82194      80571.87       80488.45       83.420221     -620.84932      8180.3437     -9945.3186      64459.841      18412.826      0              1.6076757     -62465.3        22124.858      1.5275294    
    252500   252500         298.36357      298.36357      80557.893      80486.744      71.149211     -619.96126      8173.3596     -9944.1046      64455.608      18420.235      0              1.6076757     -63276.475      22124.858      1.5275294    
    253000   253000         329.59896      329.59896      80562.265      80483.667      78.59775      -621.88792      8179.8074     -9944.9992      64455.637      18413.502      0              1.6076757     -62337.577      22124.858      1.5275294    
    253500   253500         378.09157      378.09157      80571.778      80481.617      90.161533     -620.31522      8174.3174     -9944.1904      64457.894      18412.303      0              1.6076757     -63096.62       22124.858      1.5275294    
    254000   254000         340.14878      340.14878      80558.074      80476.96       81.113511     -619.91737      8177.889      -9944.4736      64449.485      18412.37       0              1.6076757     -62321.969      22124.858      1.5275294    
    254500   254500         331.1598       331.1598       80549.799      80470.829      78.969957     -622.17574      8176.6341     -9944.6604      64448.729      18410.694      0              1.6076757     -63149.47       22124.858      1.5275294    
    255000   255000         352.77385      352.77385      80559.832      80475.708      84.124146     -619.29784      8176.6096     -9944.4905      64453.825      18407.454      0              1.6076757     -62378.493      22124.858      1.5275294    
    255500   255500         339.27938      339.27938      80570.258      80489.352      80.90619      -620.16239      8175.8097     -9944.4844      64455.564      18421.018      0              1.6076757     -62829.829      22124.858      1.5275294    
    256000   256000         305.45865      305.45865      80559.961      80487.12       72.841136     -620.07308      8176.9768     -9944.1892      64457.536      18415.262      0              1.6076757     -62880.566      22124.858      1.5275294    
    256500   256500         270.17353      270.17353      80552.226      80487.799      64.426878     -620.37587      8176.089      -9944.5896      64460.316      18414.752      0              1.6076757     -62839.56       22124.858      1.5275294    
    257000   257000         226.54725      226.54725      80549.008      80494.984      54.023546     -621.17033      8176.0229     -9944.4013      64464.239      18418.686      0              1.6076757     -62737.588      22124.858      1.5275294    
    257500   257500         201.85053      201.85053      80546.6        80498.466      48.134248     -618.85826      8176.9471     -9944.4911      64466.742      18416.519      0              1.6076757     -63197.232      22124.858      1.5275294    
    258000   258000         257.10599      257.10599      80561.802      80500.492      61.310729     -620.39498      8174.1019     -9944.7871      64468.898      18421.066      0              1.6076757     -62629.406      22124.858      1.5275294    
    258500   258500         298.15205      298.15205      80560.847      80489.748      71.098769     -620.20196      8177.4696     -9944.4249      64463.979      18411.319      0              1.6076757     -62953.149      22124.858      1.5275294    
    259000   259000         280.83801      280.83801      80549.854      80482.884      66.969981     -621.76577      8178.6779     -9944.9375      64457.361      18411.941      0              1.6076757     -62750.494      22124.858      1.5275294    
    259500   259500         273.3122       273.3122       80547.8        80482.625      65.17534      -619.94632      8174.7562     -9944.2854      64454.807      18415.686      0              1.6076757     -62832.824      22124.858      1.5275294    
    260000   260000         349.99545      349.99545      80564.757      80481.295      83.461596     -621.67018      8178.515      -9944.6692      64458.188      18409.324      0              1.6076757     -62612.535      22124.858      1.5275294    
    260500   260500         349.86774      349.86774      80567.159      80483.728      83.431142     -620.54906      8177.0054     -9944.7328      64456.407      18413.99       0              1.6076757     -63129.17       22124.858      1.5275294    
    261000   261000         297.43673      297.43673      80552.334      80481.406      70.928191     -620.27036      8176.4186     -9944.4172      64451.683      18416.384      0              1.6076757     -62047.093      22124.858      1.5275294    
    261500   261500         302.34016      302.34016      80549.615      80477.518      72.097487     -621.36161      8177.9514     -9944.7342      64457.186      18406.869      0              1.6076757     -63706.103      22124.858      1.5275294    
    262000   262000         288.44043      288.44043      80565.014      80496.231      68.782892     -620.76134      8174.8224     -9944.1476      64464.535      18420.175      0              1.6076757     -61785.473      22124.858      1.5275294    
    262500   262500         276.84097      276.84097      80572.983      80506.966      66.016828     -621.13342      8179.7402     -9944.6273      64472.464      18418.915      0              1.6076757     -64015.164      22124.858      1.5275294    
    263000   263000         302.74576      302.74576      80561.298      80489.103      72.194209     -619.93758      8173.3121     -9944.0904      64457.417      18420.794      0              1.6076757     -61933.146      22124.858      1.5275294    
    263500   263500         324.91223      324.91223      80554.295      80476.815      77.480132     -620.62012      8177.5565     -9944.5032      64452.481      18410.293      0              1.6076757     -63206.923      22124.858      1.5275294    
    264000   264000         315.43518      315.43518      80557.675      80482.454      75.220189     -622.33423      8178.7965     -9944.4756      64453.527      18415.333      0              1.6076757     -62835.969      22124.858      1.5275294    
    264500   264500         346.08508      346.08508      80562.36       80479.831      82.52911      -621.46517      8177.3461     -9944.2862      64455.102      18411.526      0              1.6076757     -62507.924      22124.858      1.5275294    
    265000   265000         350.63208      350.63208      80567.919      80484.305      83.613409     -619.74581      8175.7647     -9944.1285      64460.608      18410.2        0              1.6076757     -62975.276      22124.858      1.5275294    
    265500   265500         316.57236      316.57236      80567.448      80491.956      75.491366     -621.68791      8179.5506     -9944.4735      64457.213      18419.746      0              1.6076757     -62511.075      22124.858      1.5275294    
    266000   266000         317.67627      317.67627      80556.77       80481.015      75.754609     -619.12928      8172.3977     -9943.5715      64455.262      18414.449      0              1.6076757     -63220.88       22124.858      1.5275294    
    266500   266500         284.99967      284.99967      80545.252      80477.289      67.96239      -620.33975      8176.9464     -9944.0496      64451.468      18411.656      0              1.6076757     -62328.296      22124.858      1.5275294    
    267000   267000         254.15721      254.15721      80542.35       80481.743      60.60755      -621.34076      8174.7574     -9944.1443      64454.007      18416.855      0              1.6076757     -63107.93       22124.858      1.5275294    
    267500   267500         287.31339      287.31339      80560.894      80492.38       68.514131     -619.94684      8177.9742     -9943.8239      64460.945      18415.624      0              1.6076757     -62872.727      22124.858      1.5275294    
    268000   268000         315.57165      315.57165      80568.95       80493.697      75.252731     -618.70699      8172.2556     -9943.6246      64464.684      18417.482      0              1.6076757     -62328.813      22124.858      1.5275294    
    268500   268500         286.90968      286.90968      80568.672      80500.254      68.417862     -620.16981      8175.7966     -9944.1042      64468.366      18418.758      0              1.6076757     -63636.877      22124.858      1.5275294    
    269000   269000         269.4766       269.4766       80554.019      80489.759      64.260685     -620.7454       8177.3481     -9944.2459      64458.968      18416.826      0              1.6076757     -62051.447      22124.858      1.5275294    
    269500   269500         304.51858      304.51858      80552.489      80479.872      72.616964     -619.47915      8175.8701     -9943.9653      64459.25       18406.588      0              1.6076757     -63206.333      22124.858      1.5275294    
    270000   270000         328.83896      328.83896      80577.024      80498.608      78.416518     -619.6112       8174.7634     -9944.347       64464.716      18421.479      0              1.6076757     -62411.603      22124.858      1.5275294    
    270500   270500         316.03332      316.03332      80576.094      80500.731      75.362824     -621.0143       8179.8738     -9943.7977      64465.781      18418.28       0              1.6076757     -63511.067      22124.858      1.5275294    
    271000   271000         273.09758      273.09758      80553.306      80488.182      65.124162     -621.89124      8176.2525     -9944.5893      64460.895      18415.907      0              1.6076757     -62207.558      22124.858      1.5275294    
    271500   271500         268.44054      268.44054      80552.662      80488.649      64.013621     -622.11635      8181.2476     -9944.5969      64458.482      18414.024      0              1.6076757     -63175.587      22124.858      1.5275294    
    272000   272000         316.69602      316.69602      80579.358      80503.837      75.520853     -620.61111      8176.8442     -9944.6288      64469.218      18421.407      0              1.6076757     -62663.681      22124.858      1.5275294    
    272500   272500         345.58166      345.58166      80573.238      80490.829      82.409063     -621.55427      8180.4434     -9944.6314      64467.29       18407.673      0              1.6076757     -63157.765      22124.858      1.5275294    
    273000   273000         272.70421      272.70421      80555.314      80490.283      65.030357     -621.25614      8176.1429     -9944.5985      64462.274      18416.114      0              1.6076757     -62537.281      22124.858      1.5275294    
    273500   273500         292.17776      292.17776      80567.902      80498.228      69.674113     -619.39685      8178.6178     -9944.2732      64462.841      18418.832      0              1.6076757     -62662.414      22124.858      1.5275294    
    274000   274000         324.89461      324.89461      80564.303      80486.827      77.47593      -621.44877      8176.022      -9945.1924      64462.178      18413.66       0              1.6076757     -63193.667      22124.858      1.5275294    
    274500   274500         301.01373      301.01373      80560.012      80488.231      71.781181     -622.35765      8182.0636     -9944.3775      64459.749      18411.546      0              1.6076757     -62616.669      22124.858      1.5275294    
    275000   275000         304.53741      304.53741      80564.065      80491.444      72.621453     -621.28622      8173.6326     -9944.8427      64457.216      18425.116      0              1.6076757     -62917.5        22124.858      1.5275294    
    275500   275500         340.0769       340.0769       80570.026      80488.93       81.096371     -620.46351      8180.8399     -9944.2771      64460.123      18411.1        0              1.6076757     -62675.88       22124.858      1.5275294    
    276000   276000         326.0323       326.0323       80560.226      80482.478      77.747228     -619.06812      8174.206      -9944.1287      64457.847      18412.015      0              1.6076757     -62893.845      22124.858      1.5275294    
    276500   276500         268.04987      268.04987      80554.303      80490.383      63.92046      -621.41103      8177.5152     -9944.5362      64460.856      18416.352      0              1.6076757     -62769.295      22124.858      1.5275294    
    277000   277000         276.27097      276.27097      80550.768      80484.887      65.880902     -621.96269      8179.0515     -9944.1068      64462.042      18408.255      0              1.6076757     -62742.632      22124.858      1.5275294    
    277500   277500         268.79488      268.79488      80545.11       80481.011      64.098118     -619.36223      8174.0843     -9944.1664      64461.371      18407.477      0              1.6076757     -62929.009      22124.858      1.5275294    
    278000   278000         253.69776      253.69776      80559.05       80498.552      60.497987     -618.98103      8175.0165     -9944.3961      64470.027      18415.277      0              1.6076757     -62336.281      22124.858      1.5275294    
    278500   278500         273.93753      273.93753      80562.722      80497.398      65.324459     -620.10127      8175.0778     -9943.8993      64469.394      18415.318      0              1.6076757     -63536.749      22124.858      1.5275294    
    279000   279000         272.0401       272.0401       80555.354      80490.482      64.87199      -621.72839      8179.0315     -9944.4047      64468.62       18407.356      0              1.6076757     -62044.132      22124.858      1.5275294    
    279500   279500         252.25601      252.25601      80545.794      80485.639      60.154181     -618.85053      8171.0818     -9943.7872      64459.679      18415.908      0              1.6076757     -63368.395      22124.858      1.5275294    
    280000   280000         292.42263      292.42263      80560.684      80490.951      69.732505     -620.85088      8179.1488     -9944.2336      64459.717      18415.563      0              1.6076757     -62246.633      22124.858      1.5275294    
    280500   280500         321.85883      321.85883      80561.059      80484.307      76.752004     -619.03516      8173.2667     -9943.9995      64458.174      18414.293      0              1.6076757     -63442.228      22124.858      1.5275294    
    281000   281000         268.5516       268.5516       80548.803      80484.763      64.040106     -620.63626      8176.867      -9943.9616      64455.193      18415.693      0              1.6076757     -62205.4        22124.858      1.5275294    
    281500   281500         231.74701      231.74701      80550.89       80495.626      55.263505     -620.92588      8176.2574     -9943.9374      64461.826      18420.799      0              1.6076757     -63383.78       22124.858      1.5275294    
    282000   282000         242.58631      242.58631      80552.787      80494.939      57.848297     -621.61208      8177.7479     -9944.0318      64465.647      18415.58       0              1.6076757     -62607.576      22124.858      1.5275294    
    282500   282500         238.71613      238.71613      80560.43       80503.505      56.925395     -618.6925       8172.5832     -9943.8895      64475.207      18416.689      0              1.6076757     -63178.233      22124.858      1.5275294    
    283000   283000         210.57124      210.57124      80570.991      80520.777      50.21383      -620.58448      8176.8311     -9943.983       64484.678      18422.227      0              1.6076757     -62668.305      22124.858      1.5275294    
    283500   283500         253.41237      253.41237      80569.965      80509.535      60.429931     -620.87175      8175.7742     -9943.7067      64477.284      18419.448      0              1.6076757     -62930.38       22124.858      1.5275294    
    284000   284000         236.31113      236.31113      80553.799      80497.447      56.351888     -619.46685      8175.0565     -9944.0654      64471.784      18412.53       0              1.6076757     -62936.63       22124.858      1.5275294    
    284500   284500         244.30831      244.30831      80555.354      80497.095      58.258932     -620.92563      8175.636      -9943.8826      64464.169      18420.49       0              1.6076757     -63044.267      22124.858      1.5275294    
    285000   285000         323.26387      323.26387      80573.359      80496.272      77.087055     -619.88841      8176.995      -9943.8172      64461.591      18419.784      0              1.6076757     -62369.425      22124.858      1.5275294    
    285500   285500         357.14853      357.14853      80575.433      80490.266      85.167354     -619.91248      8173.9889     -9943.8751      64464.028      18414.428      0              1.6076757     -63246.309      22124.858      1.5275294    
    286000   286000         276.40722      276.40722      80553.086      80487.173      65.913394     -620.28261      8175.9143     -9943.8155      64457.464      18416.285      0              1.6076757     -62491.33       22124.858      1.5275294    
    286500   286500         264.49704      264.49704      80554.296      80491.223      63.073234     -620.11185      8175.774      -9943.9444      64460.039      18417.858      0              1.6076757     -63120.35       22124.858      1.5275294    
    287000   287000         294.79945      294.79945      80561.195      80490.896      70.299292     -619.78298      8175.4047     -9943.971       64461.944      18415.693      0              1.6076757     -62565.506      22124.858      1.5275294    
    287500   287500         298.90394      298.90394      80569          80497.722      71.278068     -620.22086      8174.9468     -9943.9785      64467.315      18418.052      0              1.6076757     -63076.685      22124.858      1.5275294    
    288000   288000         241.72126      241.72126      80560.625      80502.983      57.642014     -621.04818      8178.7646     -9944.1252      64466.308      18421.477      0              1.6076757     -62631.868      22124.858      1.5275294    
    288500   288500         219.86237      219.86237      80548.673      80496.243      52.429438     -618.67555      8172.6261     -9943.8835      64467.996      18416.572      0              1.6076757     -63294.062      22124.858      1.5275294    
    289000   289000         264.20245      264.20245      80556.603      80493.6        63.002985     -621.08353      8176.5478     -9943.7722      64467.91       18412.39       0              1.6076757     -62327.858      22124.858      1.5275294    
    289500   289500         280.97325      280.97325      80560.899      80493.897      67.002232     -618.76012      8175.3561     -9943.9602      64468.045      18411.609      0              1.6076757     -63061.342      22124.858      1.5275294    
    290000   290000         247.47092      247.47092      80550.068      80491.055      59.013104     -618.71539      8171.2827     -9943.7845      64464.875      18415.789      0              1.6076757     -62823.029      22124.858      1.5275294    
    290500   290500         276.03972      276.03972      80550.562      80484.736      65.825757     -621.92458      8180.1001     -9944.3135      64461.577      18407.69       0              1.6076757     -62518.753      22124.858      1.5275294    
    291000   291000         310.85648      310.85648      80562.315      80488.187      74.12833      -619.41283      8173.5232     -9943.6273      64468.35       18407.746      0              1.6076757     -63000.523      22124.858      1.5275294    
    291500   291500         283.23908      283.23908      80566.254      80498.712      67.542552     -621.46357      8178.2854     -9943.9313      64469.654      18414.559      0              1.6076757     -62483.474      22124.858      1.5275294    
    292000   292000         276.20579      276.20579      80567.786      80501.921      65.86536      -621.01559      8177.3054     -9944.1362      64470.704      18417.456      0              1.6076757     -63210.68       22124.858      1.5275294    
    292500   292500         261.08067      261.08067      80554.475      80492.217      62.258551     -616.97919      8173.7724     -9944.006       64466.968      18410.854      0              1.6076757     -62518.753      22124.858      1.5275294    
    293000   293000         249.77854      249.77854      80555.327      80495.763      59.56339      -619.87588      8174.1293     -9943.8984      64471.268      18412.533      0              1.6076757     -62798.375      22124.858      1.5275294    
    293500   293500         266.90005      266.90005      80565.253      80501.606      63.646268     -620.53985      8180.1186     -9944.2019      64472.298      18412.324      0              1.6076757     -62875.87       22124.858      1.5275294    
    294000   294000         346.00853      346.00853      80575.788      80493.277      82.510856     -618.99875      8171.6105     -9943.7851      64466.156      18416.687      0              1.6076757     -62951.541      22124.858      1.5275294    
    294500   294500         358.38339      358.38339      80568.673      80483.211      85.461826     -620.91135      8180.3838     -9944.2482      64458.29       18408.089      0              1.6076757     -62133.711      22124.858      1.5275294    
    295000   295000         299.93114      299.93114      80552.489      80480.966      71.523021     -619.23645      8173.9808     -9944.5651      64455.006      18414.173      0              1.6076757     -63325.692      22124.858      1.5275294    
    295500   295500         305.73807      305.73807      80558.835      80485.927      72.907768     -621.1466       8180.3808     -9943.8673      64458.322      18410.631      0              1.6076757     -62537.422      22124.858      1.5275294    
    296000   296000         330.55548      330.55548      80576.408      80497.582      78.825849     -619.30063      8173.7705     -9944.2222      64467.43       18418.297      0              1.6076757     -62691.55       22124.858      1.5275294    
    296500   296500         315.63886      315.63886      80580.196      80504.927      75.268758     -621.79814      8182.1277     -9944.0796      64473.894      18413.175      0              1.6076757     -63067.02       22124.858      1.5275294    
    297000   297000         267.63464      267.63464      80569.42       80505.598      63.821441     -621.21765      8174.5922     -9944.227       64471.602      18423.241      0              1.6076757     -62546.955      22124.858      1.5275294    
    297500   297500         275.70909      275.70909      80565.224      80499.477      65.746914     -619.31011      8177.3366     -9944.3498      64472.246      18411.946      0              1.6076757     -63269.824      22124.858      1.5275294    
    298000   298000         277.88828      277.88828      80556.586      80490.32       66.266573     -622.18371      8178.7412     -9944.2921      64467.673      18408.774      0              1.6076757     -62262.654      22124.858      1.5275294    
    298500   298500         299.25431      299.25431      80560.028      80488.667      71.36162      -621.6218       8177.7373     -9944.3557      64465.826      18409.473      0              1.6076757     -63271.619      22124.858      1.5275294    
    299000   299000         274.75421      274.75421      80562.015      80496.496      65.519208     -620.59454      8178.2053     -9944.1179      64467.369      18414.027      0              1.6076757     -62415.303      22124.858      1.5275294    
    299500   299500         280.37968      280.37968      80556.716      80489.855      66.860685     -621.00416      8177.2341     -9944.1781      64463.32       18412.876      0              1.6076757     -63049.068      22124.858      1.5275294    
    300000   300000         308.06805      308.06805      80551.355      80477.891      73.463388     -621.08917      8177.5211     -9944.5225      64455.213      18409.161      0              1.6076757     -62537.672      22124.858      1.5275294    
    300500   300500         289.85118      289.85118      80544.135      80475.016      69.119305     -619.71047      8176.1814     -9943.8115      64453.546      18407.203      0              1.6076757     -62894.838      22124.858      1.5275294    
    301000   301000         265.37343      265.37343      80544.52       80481.237      63.282223     -622.44901      8177.8391     -9944.6188      64452.653      18416.206      0              1.6076757     -62685.864      22124.858      1.5275294    
    301500   301500         314.34235      314.34235      80563.428      80488.468      74.959586     -619.91903      8178.226      -9943.9962      64456.562      18415.988      0              1.6076757     -63070.552      22124.858      1.5275294    
    302000   302000         337.36106      337.36106      80569.65       80489.202      80.448738     -620.46307      8177.1013     -9944.485       64460.425      18415.016      0              1.6076757     -62341.851      22124.858      1.5275294    
    302500   302500         306.96394      306.96394      80559.224      80486.023      73.200095     -620.80561      8176.1876     -9944.199       64463.422      18409.811      0              1.6076757     -63272.562      22124.858      1.5275294    
    303000   303000         290.04522      290.04522      80561.214      80492.049      69.165576     -623.40265      8183.0159     -9944.3809      64463.851      18411.357      0              1.6076757     -62278.857      22124.858      1.5275294    
    303500   303500         317.16047      317.16047      80573.8        80498.169      75.63161      -620.29617      8175.1597     -9944.7695      64462.769      18423.698      0              1.6076757     -63332.897      22124.858      1.5275294    
    304000   304000         311.67429      311.67429      80574.853      80500.53       74.323349     -619.83516      8179.494      -9944.563       64464.423      18419.403      0              1.6076757     -62568.608      22124.858      1.5275294    
    304500   304500         274.69147      274.69147      80560.241      80494.737      65.504247     -622.30719      8178.1017     -9944.6678      64465.451      18416.551      0              1.6076757     -63150.633      22124.858      1.5275294    
    305000   305000         263.88188      263.88188      80556.056      80493.13       62.92654      -623.05806      8180.5132     -9944.8547      64465.449      18413.472      0              1.6076757     -62506.309      22124.858      1.5275294    
    305500   305500         267.28614      267.28614      80562.155      80498.417      63.738338     -622.27         8180.4932     -9943.9921      64469.693      18412.885      0              1.6076757     -63272.111      22124.858      1.5275294    
    306000   306000         285.71135      285.71135      80569.902      80501.77       68.1321       -623.18944      8180.4011     -9944.9005      64471.686      18416.165      0              1.6076757     -62549.371      22124.858      1.5275294    
    306500   306500         268.25068      268.25068      80565.091      80501.123      63.968347     -619.22836      8176.0514     -9944.3035      64469.006      18417.99       0              1.6076757     -62943.824      22124.858      1.5275294    
    307000   307000         252.20772      252.20772      80559.42       80499.277      60.142664     -620.04013      8178.4231     -9944.7957      64468.746      18415.336      0              1.6076757     -63166.156      22124.858      1.5275294    
    307500   307500         269.92814      269.92814      80558.246      80493.877      64.36836      -624.32469      8181.303      -9944.5416      64463.662      18416.171      0              1.6076757     -62483.836      22124.858      1.5275294    
    308000   308000         330.49241      330.49241      80561.957      80483.146      78.810808     -622.77146      8182.2775     -9944.8619      64460.126      18406.768      0              1.6076757     -62864.103      22124.858      1.5275294    
    308500   308500         413.88412      413.88412      80577.652      80478.955      98.696795     -622.87549      8179.0885     -9944.8313      64455.096      18410.87       0              1.6076757     -63146.052      22124.858      1.5275294    
    309000   309000         415.43632      415.43632      80573.161      80474.094      99.06694      -622.67249      8181.0026     -9944.5612      64449.675      18409.043      0              1.6076757     -61814.344      22124.858      1.5275294    
    309500   309500         384.32245      384.32245      80568.713      80477.065      91.647377     -621.22178      8178.2827     -9944.7493      64453.538      18409.608      0              1.6076757     -63550.464      22124.858      1.5275294    
    310000   310000         320.56501      320.56501      80559.888      80483.444      76.443472     -624.08136      8181.1171     -9944.4836      64456.668      18412.616      0              1.6076757     -62300.299      22124.858      1.5275294    
    310500   310500         258.72516      258.72516      80543.579      80481.883      61.696845     -621.62669      8179.4139     -9944.7064      64459.818      18407.376      0              1.6076757     -63080.386      22124.858      1.5275294    
    311000   311000         295.66902      295.66902      80558.276      80487.769      70.506654     -621.29022      8177.7108     -9943.9209      64464.154      18409.507      0              1.6076757     -62298.654      22124.858      1.5275294    
    311500   311500         305.3385       305.3385       80563.85       80491.037      72.812486     -623.34593      8181.6308     -9945.2493      64468.621      18407.772      0              1.6076757     -63501.727      22124.858      1.5275294    
    312000   312000         299.67454      299.67454      80569.06       80497.599      71.46183      -618.99548      8174.6037     -9943.6359      64469.12       18414.899      0              1.6076757     -62037.37       22124.858      1.5275294    
    312500   312500         278.0609       278.0609       80564.958      80498.651      66.307737     -622.37338      8180.88       -9944.7252      64468.273      18414.988      0              1.6076757     -63394.381      22124.858      1.5275294    
    313000   313000         275.33362      275.33362      80559.814      80494.157      65.657377     -623.67817      8180.0046     -9944.6994      64463.773      18417.149      0              1.6076757     -62566.997      22124.858      1.5275294    
    313500   313500         267.89642      267.89642      80554.684      80490.801      63.883866     -620.28243      8179.4585     -9944.7937      64460.288      18414.522      0              1.6076757     -63068.873      22124.858      1.5275294    
    314000   314000         269.30657      269.30657      80556.827      80492.607      64.220139     -623.89441      8179.9062     -9945.0087      64463.192      18416.804      0              1.6076757     -62877.352      22124.858      1.5275294    
    314500   314500         277.44767      277.44767      80561.286      80495.125      66.161504     -621.30881      8180.466      -9944.3622      64464.744      18413.979      0              1.6076757     -62793.166      22124.858      1.5275294    
    315000   315000         314.11508      314.11508      80577.188      80502.283      74.90539      -622.61729      8179.1067     -9944.4929      64468.898      18419.78       0              1.6076757     -63048.003      22124.858      1.5275294    
    315500   315500         309.90526      309.90526      80573.422      80499.521      73.901498     -622.07232      8179.8795     -9944.3226      64466.382      18418.047      0              1.6076757     -62735.118      22124.858      1.5275294    
    316000   316000         275.28727      275.28727      80553.343      80487.697      65.646326     -619.13227      8176.1058     -9944.7186      64459.861      18413.974      0              1.6076757     -62595.572      22124.858      1.5275294    
    316500   316500         272.1966       272.1966       80551.026      80486.117      64.90931      -624.35456      8181.813      -9944.3929      64457.549      18413.895      0              1.6076757     -63612.638      22124.858      1.5275294    
    317000   317000         269.93637      269.93637      80550.805      80486.435      64.370323     -622.72048      8181.1414     -9944.676       64455.683      18415.399      0              1.6076757     -61732.678      22124.858      1.5275294    
    317500   317500         299.62057      299.62057      80561.802      80490.353      71.448961     -622.15407      8177.7129     -9944.1424      64461.868      18415.461      0              1.6076757     -64199.172      22124.858      1.5275294    
    318000   318000         301.76514      301.76514      80561.89       80489.93       71.960366     -621.05455      8180.6134     -9945.0316      64455.986      18417.809      0              1.6076757     -61708.934      22124.858      1.5275294    
    318500   318500         296.38785      296.38785      80563.048      80492.37       70.678069     -619.92596      8174.6524     -9943.9009      64460.268      18419.669      0              1.6076757     -63602.592      22124.858      1.5275294    
    319000   319000         266.33594      266.33594      80557.249      80493.738      63.511749     -623.75602      8181.6694     -9944.7201      64465.761      18413.176      0              1.6076757     -62499.552      22124.858      1.5275294    
    319500   319500         245.05388      245.05388      80554.298      80495.861      58.436724     -621.82555      8177.9626     -9944.1522      64468.035      18414.234      0              1.6076757     -63093.859      22124.858      1.5275294    
    320000   320000         218.12219      218.12219      80541.845      80489.83       52.014464     -621.76441      8178.908      -9944.6921      64462.804      18412.967      0              1.6076757     -62649.954      22124.858      1.5275294    
    320500   320500         227.17145      227.17145      80556.899      80502.727      54.172395     -620.96741      8178.5454     -9944.8671      64470.356      18418.052      0              1.6076757     -63252.902      22124.858      1.5275294    
    321000   321000         232.62903      232.62903      80562.677      80507.203      55.473835     -622.11269      8177.8547     -9944.2107      64470.674      18423.39       0              1.6076757     -62754.95       22124.858      1.5275294    
    321500   321500         234.73968      234.73968      80560.533      80504.555      55.977152     -622.46462      8181.0077     -9945.1507      64469.959      18419.597      0              1.6076757     -62947.977      22124.858      1.5275294    
    322000   322000         238.5827       238.5827       80546.008      80489.115      56.893576     -623.56925      8179.0698     -9944.7728      64462.844      18413.936      0              1.6076757     -63175.466      22124.858      1.5275294    
    322500   322500         285.18754      285.18754      80551.242      80483.235      68.00719      -620.6203       8178.799      -9944.4653      64456.529      18411.384      0              1.6076757     -62388.281      22124.858      1.5275294    
    323000   323000         356.037        356.037        80568.254      80483.352      84.902293     -621.63537      8178.4697     -9944.9853      64456.741      18413.154      0              1.6076757     -63182.292      22124.858      1.5275294    
    323500   323500         333.86737      333.86737      80558.503      80478.887      79.615617     -622.13503      8177.9544     -9944.4971      64451.559      18414.399      0              1.6076757     -62421.976      22124.858      1.5275294    
    324000   324000         326.01125      326.01125      80555.881      80478.139      77.74221      -621.95039      8180.7121     -9944.8102      64453.664      18408.916      0              1.6076757     -62920.973      22124.858      1.5275294    
    324500   324500         371.74785      371.74785      80566.692      80478.043      88.648779     -622.51393      8177.1816     -9944.3667      64455.313      18410.821      0              1.6076757     -62882.272      22124.858      1.5275294    
    325000   325000         377.97995      377.97995      80576.815      80486.68       90.134915     -621.62199      8180.1373     -9944.7845      64460.659      18410.683      0              1.6076757     -62121.56       22124.858      1.5275294    
    325500   325500         334.10168      334.10168      80577.26       80497.589      79.671493     -620.73797      8176.5242     -9944.5323      64471.665      18413.062      0              1.6076757     -63575.707      22124.858      1.5275294    
    326000   326000         240.03156      240.03156      80555.887      80498.648      57.23908      -621.56058      8179.7999     -9944.9408      64469.278      18414.464      0              1.6076757     -62156.132      22124.858      1.5275294    
    326500   326500         236.32012      236.32012      80554.861      80498.506      56.354032     -622.3061       8178.4379     -9944.6061      64472.032      18413.341      0              1.6076757     -63414.602      22124.858      1.5275294    
    327000   327000         262.80293      262.80293      80563.32       80500.65       62.669248     -621.96283      8180.5095     -9945.0522      64473.255      18412.294      0              1.6076757     -62518.763      22124.858      1.5275294    
    327500   327500         282.68253      282.68253      80569.83       80502.42       67.409835     -622.82717      8178.5864     -9944.4842      64474.482      18415.056      0              1.6076757     -63107.118      22124.858      1.5275294    
    328000   328000         275.21389      275.21389      80550.963      80485.334      65.628827     -622.58884      8180.8177     -9944.6243      64461.124      18408.997      0              1.6076757     -62464.609      22124.858      1.5275294    
    328500   328500         272.64623      272.64623      80544.394      80479.377      65.016531     -620.11981      8174.5342     -9944.4371      64456.717      18411.076      0              1.6076757     -63377.883      22124.858      1.5275294    
    329000   329000         312.38623      312.38623      80557.211      80482.718      74.49312      -622.68812      8180.487      -9944.5702      64452.98       18414.902      0              1.6076757     -61889.519      22124.858      1.5275294    
    329500   329500         342.5737       342.5737       80567.556      80485.864      81.691771     -621.38625      8178.5742     -9944.6023      64456.57       18415.101      0              1.6076757     -63966.85       22124.858      1.5275294    
    330000   330000         320.50052      320.50052      80562.257      80485.829      76.428094     -621.26856      8176.7925     -9944.5588      64454.087      18419.169      0              1.6076757     -61648.145      22124.858      1.5275294    
    330500   330500         282.04044      282.04044      80549.998      80482.741      67.256719     -620.38659      8177.1547     -9944.1948      64456.931      18411.63       0              1.6076757     -63754.935      22124.858      1.5275294    
    331000   331000         278.12416      278.12416      80553.429      80487.106      66.322824     -620.0351       8177.4536     -9944.7682      64461.398      18411.451      0              1.6076757     -62183.724      22124.858      1.5275294    
    331500   331500         269.79535      269.79535      80558.692      80494.355      64.336695     -622.14441      8180.4121     -9944.6236      64467.399      18411.704      0              1.6076757     -63036.097      22124.858      1.5275294    
    332000   332000         274.56887      274.56887      80564.637      80499.162      65.475013     -624.0699       8182.4127     -9944.7151      64472.761      18411.165      0              1.6076757     -62905.427      22124.858      1.5275294    
    332500   332500         275.49661      275.49661      80573.211      80507.515      65.696245     -619.78067      8176.1453     -9944.7518      64475.352      18418.942      0              1.6076757     -62730.56       22124.858      1.5275294    
    333000   333000         269.7122       269.7122       80571.355      80507.038      64.316866     -621.82665      8179.7494     -9944.8168      64477.151      18415.174      0              1.6076757     -62941.897      22124.858      1.5275294    
    333500   333500         251.85768      251.85768      80546.44       80486.381      60.059192     -620.15159      8177.3981     -9944.8705      64462.664      18409.733      0              1.6076757     -62871.63       22124.858      1.5275294    
    334000   334000         291.95192      291.95192      80555.068      80485.448      69.620258     -619.45115      8176.0453     -9944.6179      64461.128      18410.735      0              1.6076757     -62578.15       22124.858      1.5275294    
    334500   334500         330.82079      330.82079      80569.398      80490.509      78.889115     -620.74043      8179.3278     -9944.8791      64459.085      18416.108      0              1.6076757     -62967.957      22124.858      1.5275294    
    335000   335000         346.62461      346.62461      80572.847      80490.189      82.65777      -621.8311       8178.927      -9944.7378      64458.053      18418.17       0              1.6076757     -62662.42       22124.858      1.5275294    
    335500   335500         346.7028       346.7028       80564.233      80481.556      82.676414     -621.05978      8178.7488     -9944.5427      64454.247      18412.556      0              1.6076757     -62911.719      22124.858      1.5275294    
    336000   336000         327.73509      327.73509      80556.458      80478.305      78.153284     -621.48227      8179.3844     -9944.7549      64451.516      18412.034      0              1.6076757     -62562.004      22124.858      1.5275294    
    336500   336500         310.06743      310.06743      80558.718      80484.777      73.940168     -621.13563      8178.3209     -9944.991       64452.505      18418.47       0              1.6076757     -63118.884      22124.858      1.5275294    
    337000   337000         291.50642      291.50642      80566.076      80496.562      69.514021     -620.9706       8179.4964     -9944.8318      64458.557      18422.703      0              1.6076757     -62617.888      22124.858      1.5275294    
    337500   337500         268.67485      268.67485      80569.114      80505.044      64.069496     -620.25689      8178.4214     -9945.2316      64467.29       18423.214      0              1.6076757     -63365.766      22124.858      1.5275294    
    338000   338000         280.65923      280.65923      80567.538      80500.611      66.927349     -622.68486      8179.1834     -9945.1165      64468.561      18419.06       0              1.6076757     -62493.693      22124.858      1.5275294    
    338500   338500         285.23792      285.23792      80555.142      80487.123      68.019205     -621.63256      8180.2001     -9945.3671      64464.369      18407.946      0              1.6076757     -63168.865      22124.858      1.5275294    
    339000   339000         324.21173      324.21173      80564.451      80487.138      77.313086     -621.60807      8179.2284     -9945.1186      64460.871      18412.158      0              1.6076757     -62399.378      22124.858      1.5275294    
    339500   339500         339.42692      339.42692      80574.529      80493.588      80.941373     -620.56449      8178.6957     -9945.3739      64465.935      18413.288      0              1.6076757     -63245.281      22124.858      1.5275294    
    340000   340000         288.01252      288.01252      80552.951      80484.27       68.680849     -621.83264      8178.9843     -9944.4704      64461.877      18408.104      0              1.6076757     -62356.244      22124.858      1.5275294    
    340500   340500         293.27546      293.27546      80550.307      80480.371      69.935875     -622.90126      8180.7622     -9945.3705      64458.823      18407.451      0              1.6076757     -62990.882      22124.858      1.5275294    
    341000   341000         296.86238      296.86238      80564.6        80493.809      70.79123      -622.0279       8179.9252     -9944.8386      64463.496      18415.647      0              1.6076757     -63027.628      22124.858      1.5275294    
    341500   341500         293.58225      293.58225      80572.595      80502.586      70.009033     -620.92928      8177.298      -9944.8233      64466.742      18422.691      0              1.6076757     -62484.042      22124.858      1.5275294    
    342000   342000         296.69844      296.69844      80562.808      80492.056      70.752136     -621.73435      8179.7374     -9944.9398      64463.712      18413.673      0              1.6076757     -63268.447      22124.858      1.5275294    
    342500   342500         255.58029      255.58029      80553.285      80492.338      60.946905     -620.04355      8176.117      -9944.7573      64465.349      18414.065      0              1.6076757     -62723.802      22124.858      1.5275294    
    343000   343000         280.09052      280.09052      80572.572      80505.78       66.791731     -622.81925      8182.447      -9945.3395      64474.655      18415.229      0              1.6076757     -62770.902      22124.858      1.5275294    
    343500   343500         323.19556      323.19556      80572.258      80495.187      77.070765     -620.74965      8178.3184     -9944.7993      64472.848      18407.962      0              1.6076757     -62836.358      22124.858      1.5275294    
    344000   344000         286.28914      286.28914      80564.593      80496.324      68.269884     -622.61102      8179.2815     -9945.052       64469.66       18413.437      0              1.6076757     -62974.35       22124.858      1.5275294    
    344500   344500         267.53491      267.53491      80558.856      80495.058      63.797661     -620.56607      8179.3204     -9944.9252      64467.726      18411.896      0              1.6076757     -62520.7        22124.858      1.5275294    
    345000   345000         300.83382      300.83382      80558.784      80487.045      71.738278     -620.56213      8176.2975     -9944.754       64462.863      18411.593      0              1.6076757     -63126.087      22124.858      1.5275294    
    345500   345500         332.11232      332.11232      80578.015      80498.817      79.1971       -622.05178      8182.429      -9944.9138      64462.584      18419.162      0              1.6076757     -62624.674      22124.858      1.5275294    
    346000   346000         313.73675      313.73675      80570.75       80495.935      74.815174     -618.67294      8174.1369     -9944.4517      64464.019      18419.296      0              1.6076757     -62888.126      22124.858      1.5275294    
    346500   346500         294.16847      294.16847      80554.471      80484.322      70.148827     -622.04588      8180.2069     -9945.0084      64455.743      18413.819      0              1.6076757     -63014.698      22124.858      1.5275294    
    347000   347000         289.82934      289.82934      80549.552      80480.438      69.114098     -622.63927      8180.0809     -9944.9805      64452.464      18413.905      0              1.6076757     -62426.285      22124.858      1.5275294    
    347500   347500         261.74829      261.74829      80544.095      80481.678      62.417755     -619.04757      8176.1526     -9945.1591      64454.378      18413.747      0              1.6076757     -63500.22       22124.858      1.5275294    
    348000   348000         283.39841      283.39841      80559.352      80491.771      67.580547     -622.75712      8182.1298     -9944.8691      64462.167      18413.493      0              1.6076757     -62019.443      22124.858      1.5275294    
    348500   348500         308.19711      308.19711      80562.548      80489.054      73.494163     -619.96426      8174.6238     -9944.9324      64466.751      18410.968      0              1.6076757     -63654.281      22124.858      1.5275294    
    349000   349000         299.04535      299.04535      80555.215      80483.903      71.31179      -621.19787      8181.843      -9944.9206      64461.414      18405.156      0              1.6076757     -61863.455      22124.858      1.5275294    
    349500   349500         285.15164      285.15164      80542.434      80474.435      67.998629     -622.31747      8176.0423     -9945.0178      64453.19       18410.93       0              1.6076757     -63494.708      22124.858      1.5275294    
    350000   350000         349.47005      349.47005      80567.994      80484.658      83.336307     -621.00528      8182.2034     -9944.5349      64455.488      18410.899      0              1.6076757     -62179.028      22124.858      1.5275294    
    350500   350500         320.47959      320.47959      80561.248      80484.825      76.423101     -618.94869      8172.575      -9944.6806      64457.144      18417.128      0              1.6076757     -63099.485      22124.858      1.5275294    
    351000   351000         270.5307       270.5307       80543.361      80478.849      64.51205      -621.22524      8181.0672     -9944.5985      64454.427      18407.57       0              1.6076757     -62740.627      22124.858      1.5275294    
    351500   351500         283.98604      283.98604      80553.715      80485.994      67.720676     -621.50774      8175.3403     -9945.354       64457.009      18418.899      0              1.6076757     -62646.656      22124.858      1.5275294    
    352000   352000         299.36312      299.36312      80562.096      80490.708      71.387569     -619.53072      8180.7752     -9944.4771      64458.435      18413.899      0              1.6076757     -63243.757      22124.858      1.5275294    
    352500   352500         323.76568      323.76568      80569.584      80492.378      77.20672      -622.30456      8177.8884     -9945.2042      64460.188      18420.202      0              1.6076757     -62422.304      22124.858      1.5275294    
    353000   353000         311.14024      311.14024      80567.419      80493.223      74.195996     -620.25087      8178.0663     -9944.6187      64468.454      18409.965      0              1.6076757     -63136.671      22124.858      1.5275294    
    353500   353500         281.55221      281.55221      80555.292      80488.152      67.140293     -620.2035       8175.9608     -9944.8019      64467.306      18408.283      0              1.6076757     -62445.945      22124.858      1.5275294    
    354000   354000         287.36252      287.36252      80557.686      80489.16       68.525847     -621.42714      8178.9662     -9944.2074      64467.778      18406.442      0              1.6076757     -62822.139      22124.858      1.5275294    
    354500   354500         286.23787      286.23787      80568.012      80499.754      68.257658     -619.95324      8176.2635     -9944.5766      64467.562      18418.851      0              1.6076757     -63182.927      22124.858      1.5275294    
    355000   355000         318.72664      318.72664      80583.216      80507.21       76.005085     -621.49818      8180.7385     -9944.4304      64466.347      18424.445      0              1.6076757     -62302.162      22124.858      1.5275294    
    355500   355500         286.55457      286.55457      80552.599      80484.266      68.333179     -620.09616      8175.2126     -9944.8593      64457.01       18415.391      0              1.6076757     -63185.754      22124.858      1.5275294    
    356000   356000         294.81985      294.81985      80550.337      80480.033      70.304157     -623.04517      8180.7401     -9944.4693      64455.08       18410.119      0              1.6076757     -62817.389      22124.858      1.5275294    
    356500   356500         270.10084      270.10084      80545.732      80481.323      64.409544     -620.90369      8178.2904     -9945.2768      64453.704      18413.901      0              1.6076757     -62694.132      22124.858      1.5275294    
    357000   357000         298.59814      298.59814      80558.952      80487.746      71.205148     -622.92706      8180.561      -9944.3933      64458.72       18414.178      0              1.6076757     -62837.941      22124.858      1.5275294    
    357500   357500         307.86335      307.86335      80567.594      80494.179      73.414574     -619.93276      8176.4786     -9945.3843      64459.539      18421.872      0              1.6076757     -63230.856      22124.858      1.5275294    
    358000   358000         253.46404      253.46404      80555.94       80495.498      60.442253     -619.39229      8178.8043     -9944.9459      64459.479      18419.945      0              1.6076757     -62312.263      22124.858      1.5275294    
    358500   358500         209.73178      209.73178      80544.853      80494.839      50.013648     -620.76466      8177.2311     -9945.2922      64464.42       18417.637      0              1.6076757     -63516.204      22124.858      1.5275294    
    359000   359000         210.52916      210.52916      80550.1        80499.896      50.203795     -621.36579      8179.0512     -9944.6832      64468.001      18417.286      0              1.6076757     -62615.221      22124.858      1.5275294    
    359500   359500         254.26986      254.26986      80560.834      80500.199      60.634413     -620.836        8178.2379     -9944.8644      64469.801      18416.253      0              1.6076757     -62949.685      22124.858      1.5275294    
    360000   360000         291.97985      291.97985      80566.321      80496.694      69.626918     -618.06722      8175.552      -9945.2776      64470.253      18412.626      0              1.6076757     -62812.09       22124.858      1.5275294    
    360500   360500         321.2551       321.2551       80564.982      80488.374      76.608035     -621.76766      8182.477      -9945.1771      64461.403      18409.831      0              1.6076757     -62732.037      22124.858      1.5275294    
    361000   361000         341.88361      341.88361      80561.707      80480.18       81.527209     -622.36418      8176.6535     -9944.8616      64456.02       18413.125      0              1.6076757     -62705.609      22124.858      1.5275294    
    361500   361500         337.05166      337.05166      80557.398      80477.023      80.374958     -621.66609      8182.6052     -9944.6652      64449.66       18409.481      0              1.6076757     -62966.815      22124.858      1.5275294    
    362000   362000         329.15984      329.15984      80553.99       80475.497      78.493037     -622.35804      8177.82       -9945.1941      64447.887      18415.735      0              1.6076757     -62440.518      22124.858      1.5275294    
    362500   362500         328.71903      328.71903      80558.654      80480.266      78.387918     -622.31373      8184.3856     -9945.1456      64452.661      18409.072      0              1.6076757     -63335.041      22124.858      1.5275294    
    363000   363000         372.16431      372.16431      80579.134      80490.386      88.748088     -622.52086      8180.0238     -9944.8608      64458.774      18417.362      0              1.6076757     -62158.066      22124.858      1.5275294    
    363500   363500         361.75973      361.75973      80572.348      80486.082      86.266962     -622.92042      8182.0139     -9944.9336      64462.264      18408.05       0              1.6076757     -63283.571      22124.858      1.5275294    
    364000   364000         314.49816      314.49816      80562.806      80487.809      74.996742     -620.93239      8179.0222     -9944.962       64463.61       18409.463      0              1.6076757     -62348.587      22124.858      1.5275294    
    364500   364500         278.11304      278.11304      80553.104      80486.784      66.320173     -621.13677      8178.9683     -9945.0249      64463.759      18408.611      0              1.6076757     -62966.835      22124.858      1.5275294    
    365000   365000         259.27424      259.27424      80549.761      80487.933      61.827781     -620.76127      8179.6537     -9944.602       64463.796      18408.239      0              1.6076757     -62803.261      22124.858      1.5275294    
    365500   365500         246.04191      246.04191      80546.218      80487.546      58.672335     -622.75734      8181.4421     -9945.2345      64461.923      18410.565      0              1.6076757     -62711.946      22124.858      1.5275294    
    366000   366000         296.99994      296.99994      80561.627      80490.803      70.824033     -622.67952      8180.9346     -9944.6953      64465.369      18410.266      0              1.6076757     -63073.206      22124.858      1.5275294    
    366500   366500         316.50897      316.50897      80564.861      80489.385      75.47625      -619.90765      8178.6725     -9945.1849      64462.6        18411.597      0              1.6076757     -62565.012      22124.858      1.5275294    
    367000   367000         298.00344      298.00344      80552.17       80481.107      71.063331     -621.49408      8180.7168     -9945.1456      64455.471      18409.951      0              1.6076757     -62795.54       22124.858      1.5275294    
    367500   367500         314.43828      314.43828      80556.512      80481.53       74.982462     -619.79729      8176.743      -9944.4124      64456.432      18410.957      0              1.6076757     -63000.83       22124.858      1.5275294    
    368000   368000         302.69712      302.69712      80557.679      80485.497      72.182608     -624.4235       8184.6207     -9945.3528      64459.311      18409.734      0              1.6076757     -62463.938      22124.858      1.5275294    
    368500   368500         290.8698       290.8698       80562.866      80493.504      69.36221      -624.09767      8183.2729     -9945.0817      64466.936      18410.867      0              1.6076757     -63265.498      22124.858      1.5275294    
    369000   369000         310.10196      310.10196      80579.974      80506.026      73.948403     -620.53743      8180.553      -9945.6274      64476.751      18413.279      0              1.6076757     -62443.064      22124.858      1.5275294    
    369500   369500         290.91161      290.91161      80572.345      80502.973      69.372179     -620.31097      8179.0087     -9945.2727      64474.596      18413.344      0              1.6076757     -63148.814      22124.858      1.5275294    
    370000   370000         264.27442      264.27442      80561.014      80497.994      63.020149     -623.43945      8182.973      -9945.1319      64468.78       18413.204      0              1.6076757     -62508.896      22124.858      1.5275294    
    370500   370500         235.91364      235.91364      80553.258      80497.001      56.257099     -622.39509      8181.7694     -9945.0886      64466.726      18414.381      0              1.6076757     -63517.752      22124.858      1.5275294    
    371000   371000         214.94209      214.94209      80548.465      80497.209      51.256124     -623.38698      8181.2786     -9944.6101      64464.22       18418.1        0              1.6076757     -62303.93       22124.858      1.5275294    
    371500   371500         214.41068      214.41068      80546.532      80495.403      51.1294       -620.9852       8180.2974     -9944.3849      64463.758      18415.11       0              1.6076757     -63586.713      22124.858      1.5275294    
    372000   372000         266.68745      266.68745      80567.759      80504.164      63.595571     -621.40127      8181.4523     -9945.4615      64467.922      18420.044      0              1.6076757     -62371.062      22124.858      1.5275294    
    372500   372500         251.0517       251.0517       80555.732      80495.865      59.866995     -622.06821      8179.9699     -9944.367       64467.575      18413.148      0              1.6076757     -63348.603      22124.858      1.5275294    
    373000   373000         265.27612      265.27612      80555.751      80492.492      63.259017     -622.48403      8181.5706     -9945.2664      64465.683      18411.381      0              1.6076757     -62239.622      22124.858      1.5275294    
    373500   373500         262.33306      262.33306      80558.57       80496.013      62.557201     -622.33437      8180.5778     -9944.8971      64471.239      18409.82       0              1.6076757     -63755.661      22124.858      1.5275294    
    374000   374000         264.95966      264.95966      80564.655      80501.472      63.183554     -621.98866      8184.1717     -9945.8233      64473.493      18410.012      0              1.6076757     -61597.558      22124.858      1.5275294    
    374500   374500         315.00211      315.00211      80579.752      80504.635      75.116916     -621.22612      8178.1211     -9944.4341      64477.355      18413.211      0              1.6076757     -64319.509      22124.858      1.5275294    
    375000   375000         312.44863      312.44863      80569.807      80495.299      74.508        -624.90265      8184.4484     -9944.8923      64465.549      18413.488      0              1.6076757     -61356.542      22124.858      1.5275294    
    375500   375500         304.63541      304.63541      80560.025      80487.38       72.644824     -620.62409      8178.449      -9944.9984      64459.646      18413.3        0              1.6076757     -64097.911      22124.858      1.5275294    
    376000   376000         290.75508      290.75508      80550.824      80481.489      69.334854     -621.26939      8180.89       -9944.9685      64452.18       18413.05       0              1.6076757     -61725.956      22124.858      1.5275294    
    376500   376500         343.48973      343.48973      80560.865      80478.955      81.910211     -620.13798      8177.5489     -9944.3993      64449.503      18414.833      0              1.6076757     -63823.169      22124.858      1.5275294    
    377000   377000         377.47561      377.47561      80570.123      80480.108      90.014647     -624.43054      8184.5646     -9944.6653      64447.919      18415.113      0              1.6076757     -61874.866      22124.858      1.5275294    
    377500   377500         354.01488      354.01488      80565.259      80480.839      84.420089     -621.28778      8178.8057     -9944.4456      64451.579      18414.58       0              1.6076757     -63360.416      22124.858      1.5275294    
    378000   378000         309.20486      309.20486      80556.585      80482.851      73.734476     -620.81757      8179.5855     -9944.9319      64450.508      18416.899      0              1.6076757     -62722.866      22124.858      1.5275294    
    378500   378500         275.37548      275.37548      80556.838      80491.171      65.66736      -620.79206      8181.2481     -9944.2268      64451.33       18422.004      0              1.6076757     -62764.521      22124.858      1.5275294    
    379000   379000         306.80907      306.80907      80571.717      80498.554      73.163164     -621.07631      8177.0627     -9944.0725      64459.939      18425.094      0              1.6076757     -63187.819      22124.858      1.5275294    
    379500   379500         327.49059      327.49059      80576.24       80498.145      78.094979     -621.65996      8180.9758     -9943.6153      64463.429      18417.408      0              1.6076757     -62571.907      22124.858      1.5275294    
    380000   380000         351.52513      351.52513      80569.925      80486.099      83.826371     -620.14318      8177.6201     -9944.567       64458.816      18412.766      0              1.6076757     -62958.252      22124.858      1.5275294    
    380500   380500         356.02574      356.02574      80560.181      80475.282      84.899607     -619.44048      8178.3781     -9944.2732      64451.314      18407.696      0              1.6076757     -62315.674      22124.858      1.5275294    
    381000   381000         379.00433      379.00433      80563.086      80472.707      90.379194     -618.9027       8174.8147     -9944.3846      64450.115      18409.457      0              1.6076757     -63007.825      22124.858      1.5275294    
    381500   381500         366.75446      366.75446      80568.903      80481.445      87.45803      -622.55432      8181.2282     -9944.3494      64450.487      18415.025      0              1.6076757     -62366.799      22124.858      1.5275294    
    382000   382000         319.61224      319.61224      80554.003      80477.786      76.21627      -618.87104      8175.5953     -9944.5434      64449.625      18414.373      0              1.6076757     -62923.575      22124.858      1.5275294    
    382500   382500         310.27128      310.27128      80557.109      80483.12       73.98878      -619.03115      8176.5252     -9944.594       64452.757      18415.855      0              1.6076757     -62965.385      22124.858      1.5275294    
    383000   383000         312.73997      312.73997      80568.848      80494.271      74.577475     -621.03982      8179.3747     -9944.5113      64462.386      18416.454      0              1.6076757     -62334.379      22124.858      1.5275294    
    383500   383500         280.18866      280.18866      80558.527      80491.712      66.815134     -621.41557      8178.6148     -9944.2664      64466.9        18410.272      0              1.6076757     -63333.452      22124.858      1.5275294    
    384000   384000         237.82645      237.82645      80551.107      80494.394      56.713237     -619.36084      8176.6238     -9944.2756      64466.073      18413.726      0              1.6076757     -62525.789      22124.858      1.5275294    
    384500   384500         267.9149       267.9149       80560.319      80496.431      63.888273     -619.90324      8177.6181     -9944.2814      64468.313      18413.077      0              1.6076757     -62799.463      22124.858      1.5275294    
    385000   385000         314.1386       314.1386       80566.158      80491.247      74.911001     -620.39633      8177.4412     -9944.4072      64462.952      18414.05       0              1.6076757     -63064.826      22124.858      1.5275294    
    385500   385500         311.05383      311.05383      80552.011      80477.836      74.175391     -621.42173      8178.7939     -9944.4256      64453.406      18409.876      0              1.6076757     -62241.524      22124.858      1.5275294    
    386000   386000         336.28429      336.28429      80556.24       80476.048      80.191967     -622.95078      8181.0927     -9944.6378      64451.576      18409.36       0              1.6076757     -63527.743      22124.858      1.5275294    
    386500   386500         350.34345      350.34345      80565.947      80482.402      83.544583     -621.45534      8180.4275     -9944.6724      64448.465      18418.03       0              1.6076757     -61890.166      22124.858      1.5275294    
    387000   387000         342.62813      342.62813      80566.299      80484.594      81.70475      -620.80586      8178.2039     -9944.8709      64453.428      18417.032      0              1.6076757     -63712.574      22124.858      1.5275294    
    387500   387500         312.7032       312.7032       80557.646      80483.078      74.568707     -620.37235      8177.2755     -9944.1011      64451.102      18417.566      0              1.6076757     -62157.247      22124.858      1.5275294    
    388000   388000         313.61136      313.61136      80556.928      80482.143      74.785271     -621.4789       8179.3833     -9944.4323      64453.624      18413.439      0              1.6076757     -63256.059      22124.858      1.5275294    
    388500   388500         301.27148      301.27148      80556.248      80484.406      71.842646     -621.31594      8177.8393     -9943.9109      64457.268      18412.917      0              1.6076757     -62605.764      22124.858      1.5275294    
    389000   389000         314.975        314.975        80567.555      80492.445      75.110451     -621.99863      8179.4979     -9944.6819      64466.424      18411.596      0              1.6076757     -62702.677      22124.858      1.5275294    
    389500   389500         331.85062      331.85062      80571.278      80492.143      79.134692     -619.4401       8177.0334     -9944.2636      64468.223      18408.983      0              1.6076757     -62978.626      22124.858      1.5275294    
    390000   390000         306.34664      306.34664      80557.897      80484.845      73.052892     -620.97598      8177.6452     -9944.2689      64463.629      18407.207      0              1.6076757     -62384.018      22124.858      1.5275294    
    390500   390500         293.44697      293.44697      80550.047      80480.071      69.976775     -620.87612      8178.1347     -9944.2799      64459.563      18405.922      0              1.6076757     -62977.484      22124.858      1.5275294    
    391000   391000         263.89749      263.89749      80546.362      80483.432      62.930263     -620.26039      8175.5012     -9943.3186      64457.024      18412.878      0              1.6076757     -62686.608      22124.858      1.5275294    
    391500   391500         252.3948       252.3948       80547.837      80487.65       60.187278     -623.00395      8181.6748     -9944.2279      64454.673      18416.926      0              1.6076757     -62869.278      22124.858      1.5275294    
    392000   392000         296.17234      296.17234      80562.052      80491.425      70.626678     -619.12048      8174.5869     -9943.9786      64455.391      18422.939      0              1.6076757     -63009.648      22124.858      1.5275294    
    392500   392500         319.11933      319.11933      80559.937      80483.839      76.098729     -618.65712      8176.8273     -9944.686       64450.436      18418.311      0              1.6076757     -62733.467      22124.858      1.5275294    
    393000   393000         303.27475      303.27475      80548.846      80476.526      72.320354     -621.83973      8178.9605     -9943.8975      64448.229      18413.465      0              1.6076757     -62935.302      22124.858      1.5275294    
    393500   393500         303.90389      303.90389      80548.108      80475.637      72.470382     -621.29683      8179.9694     -9944.5213      64447.021      18412.858      0              1.6076757     -62407.124      22124.858      1.5275294    
    394000   394000         321.88068      321.88068      80565.512      80488.755      76.757213     -621.72733      8177.4173     -9944.1066      64457.236      18418.328      0              1.6076757     -63554.431      22124.858      1.5275294    
    394500   394500         315.54898      315.54898      80564.648      80489.401      75.247327     -619.60471      8178.9589     -9944.1609      64455.758      18416.842      0              1.6076757     -61989.817      22124.858      1.5275294    
    395000   395000         285.01884      285.01884      80549.137      80481.17       67.966962     -619.61293      8175.6223     -9944.453       64455.829      18412.177      0              1.6076757     -63467.802      22124.858      1.5275294    
    395500   395500         267.58417      267.58417      80550.093      80486.283      63.809408     -621.53931      8178.294      -9943.9502      64459.382      18412.489      0              1.6076757     -62311.105      22124.858      1.5275294    
    396000   396000         295.57292      295.57292      80564.151      80493.667      70.483739     -619.49859      8177.6486     -9943.5697      64461.788      18415.692      0              1.6076757     -63079.851      22124.858      1.5275294    
    396500   396500         322.38919      322.38919      80571.583      80494.705      76.878475     -620.65114      8175.7644     -9943.8017      64462.616      18419.169      0              1.6076757     -62871.262      22124.858      1.5275294    
    397000   397000         309.5134       309.5134       80557.748      80483.94       73.808052     -619.7163       8175.6547     -9943.4531      64455.441      18414.405      0              1.6076757     -62437.617      22124.858      1.5275294    
    397500   397500         316.47282      316.47282      80549.645      80474.178      75.467629     -620.16651      8176.4166     -9943.7551      64450.945      18409.13       0              1.6076757     -63046.421      22124.858      1.5275294    
    398000   398000         325.51154      325.51154      80551.156      80473.533      77.623047     -621.20501      8178.0569     -9943.6848      64447.798      18410.96       0              1.6076757     -62551.702      22124.858      1.5275294    
    398500   398500         323.97296      323.97296      80548.899      80471.643      77.256148     -619.48194      8178.1455     -9943.9705      64446.376      18408.967      0              1.6076757     -62487.519      22124.858      1.5275294    
    399000   399000         338.79588      338.79588      80560.997      80480.206      80.790894     -621.40033      8176.9803     -9944.4972      64452.673      18414.843      0              1.6076757     -63405.437      22124.858      1.5275294    
    399500   399500         312.70378      312.70378      80567.155      80492.586      74.568847     -622.40808      8182.2049     -9943.8578      64458.301      18416.738      0              1.6076757     -61864.343      22124.858      1.5275294    
    400000   400000         292.58535      292.58535      80561.062      80491.29       69.771309     -619.07817      8175.6994     -9944.7078      64462.72       18415.05       0              1.6076757     -63879.311      22124.858      1.5275294    
    400500   400500         270.08933      270.08933      80552.596      80488.189      64.4068       -620.69508      8177.9744     -9943.868       64462.592      18410.578      0              1.6076757     -61732.63       22124.858      1.5275294    
    401000   401000         270.51171      270.51171      80544.891      80480.383      64.507522     -622.11696      8178.9199     -9944.1056      64459.628      18406.45       0              1.6076757     -63766.916      22124.858      1.5275294    
    401500   401500         327.09534      327.09534      80565.471      80487.47       78.000726     -621.17169      8178.114      -9944.0711      64460.59       18412.401      0              1.6076757     -61672.502      22124.858      1.5275294    
    402000   402000         342.29164      342.29164      80569.14       80487.516      81.624508     -617.40217      8173.471      -9943.397       64462.181      18411.055      0              1.6076757     -63594.937      22124.858      1.5275294    
    402500   402500         320.74563      320.74563      80563.955      80487.469      76.486545     -620.69113      8178.5664     -9944.1702      64460.298      18411.858      0              1.6076757     -61997.09       22124.858      1.5275294    
    403000   403000         300.95386      300.95386      80555.744      80483.977      71.766903     -620.70057      8176.3669     -9943.4269      64457.824      18412.306      0              1.6076757     -63307.253      22124.858      1.5275294    
    403500   403500         279.60246      279.60246      80552.328      80485.653      66.675346     -621.75776      8180.6812     -9944.1049      64455.985      18413.241      0              1.6076757     -62445.342      22124.858      1.5275294    
    404000   404000         295.05973      295.05973      80562.984      80492.623      70.36136      -620.4457       8176.3386     -9943.334       64461.524      18416.933      0              1.6076757     -63058.246      22124.858      1.5275294    
    404500   404500         272.44344      272.44344      80560.655      80495.686      64.968172     -617.94383      8175.8178     -9943.9649      64464.815      18415.355      0              1.6076757     -62715.789      22124.858      1.5275294    
    405000   405000         238.03316      238.03316      80550.371      80493.609      56.762532     -618.57134      8175.7887     -9944.2088      64464.549      18414.443      0              1.6076757     -62803.641      22124.858      1.5275294    
    405500   405500         243.35408      243.35408      80552.061      80494.03       58.031382     -621.78691      8179.6606     -9943.4512      64464.231      18413.769      0              1.6076757     -62867.562      22124.858      1.5275294    
    406000   406000         262.86808      262.86808      80572.086      80509.401      62.684786     -621.92326      8177.8484     -9943.8792      64470.142      18425.606      0              1.6076757     -63114.905      22124.858      1.5275294    
    406500   406500         271.83363      271.83363      80572.12       80507.297      64.822753     -618.52935      8177.3887     -9943.7024      64468.051      18422.482      0              1.6076757     -62601.788      22124.858      1.5275294    
    407000   407000         288.33171      288.33171      80569.148      80500.391      68.756965     -617.71669      8173.464      -9944.0901      64463.016      18424.11       0              1.6076757     -63260.813      22124.858      1.5275294    
    407500   407500         297.05237      297.05237      80558.668      80487.832      70.836535     -619.39789      8178.5519     -9943.9993      64456.541      18414.528      0              1.6076757     -62339.407      22124.858      1.5275294    
    408000   408000         316.45053      316.45053      80561.573      80486.111      75.462314     -620.99057      8176.6575     -9944.0055      64460.695      18412.147      0              1.6076757     -63475.298      22124.858      1.5275294    
    408500   408500         348.26526      348.26526      80567.721      80484.672      83.049007     -622.78363      8181.3606     -9944.0561      64458.664      18409.88       0              1.6076757     -61618.672      22124.858      1.5275294    
    409000   409000         300.99967      300.99967      80552.687      80480.909      71.777826     -618.76227      8175.9937     -9944.2031      64461.189      18405.084      0              1.6076757     -64035.766      22124.858      1.5275294    
    409500   409500         271.82846      271.82846      80546.674      80481.853      64.821519     -620.12033      8175.2395     -9943.9796      64457.688      18411.418      0              1.6076757     -61582.708      22124.858      1.5275294    
    410000   410000         297.62026      297.62026      80559.299      80488.327      70.971958     -620.90927      8179.3554     -9943.9966      64463.145      18409.125      0              1.6076757     -63485.9        22124.858      1.5275294    
    410500   410500         295.24034      295.24034      80560.909      80490.504      70.404429     -620.1284       8175.8663     -9944.2762      64465.468      18411.967      0              1.6076757     -62505.365      22124.858      1.5275294    
    411000   411000         260.91271      260.91271      80550.234      80488.016      62.218499     -619.84474      8177.6147     -9944.2282      64461.928      18410.939      0              1.6076757     -62752.311      22124.858      1.5275294    
    411500   411500         246.31665      246.31665      80543.6        80484.862      58.737852     -619.35202      8175.3766     -9944.2396      64460.837      18410.632      0              1.6076757     -62872.627      22124.858      1.5275294    
    412000   412000         265.36745      265.36745      80565.036      80501.755      63.280796     -619.92038      8178.5074     -9943.9514      64469.154      18416.358      0              1.6076757     -62833.821      22124.858      1.5275294    
    412500   412500         275.89324      275.89324      80568.649      80502.859      65.790828     -620.73795      8177.5232     -9944.3999      64470.397      18418.468      0              1.6076757     -62899.399      22124.858      1.5275294    
    413000   413000         277.79945      277.79945      80570.859      80504.614      66.24539      -619.42005      8176.3534     -9943.7623      64468.88       18420.955      0              1.6076757     -62931.444      22124.858      1.5275294    
    413500   413500         263.51606      263.51606      80556.837      80493.998      62.839307     -618.1075       8176.5825     -9944.742       64460.742      18417.915      0              1.6076757     -62431.089      22124.858      1.5275294    
    414000   414000         286.61824      286.61824      80574.922      80506.573      68.348361     -618.67575      8176.7025     -9944.419       64469.861      18421.497      0              1.6076757     -63746.508      22124.858      1.5275294    
    414500   414500         304.31292      304.31292      80583.293      80510.725      72.56792      -620.68269      8179.0005     -9944.0875      64470.186      18424.701      0              1.6076757     -62175.75       22124.858      1.5275294    
    415000   415000         242.72547      242.72547      80551.221      80493.339      57.881482     -621.12138      8178.5746     -9943.8032      64465.154      18412.928      0              1.6076757     -63232.368      22124.858      1.5275294    
    415500   415500         273.11955      273.11955      80557.938      80492.809      65.1294       -621.16503      8177.0062     -9944.1792      64464.335      18415.204      0              1.6076757     -62422.751      22124.858      1.5275294    
    416000   416000         298.63659      298.63659      80573.088      80501.874      71.214317     -619.26349      8176.7648     -9943.6185      64468.98       18417.404      0              1.6076757     -63211.964      22124.858      1.5275294    
    416500   416500         322.79294      322.79294      80574.163      80497.188      76.974755     -618.92512      8175.1995     -9943.5199      64463.87       18418.956      0              1.6076757     -62750.643      22124.858      1.5275294    
    417000   417000         316.20461      316.20461      80566.724      80491.321      75.403671     -620.10157      8178.5047     -9944.1628      64461.912      18413.561      0              1.6076757     -62606.505      22124.858      1.5275294    
    417500   417500         329.34871      329.34871      80561.786      80483.247      78.538075     -618.59741      8174.0426     -9943.9929      64459.178      18411.01       0              1.6076757     -62653.665      22124.858      1.5275294    
    418000   418000         270.06902      270.06902      80543.961      80479.559      64.401956     -620.70046      8178.5677     -9944.1526      64459.201      18405.036      0              1.6076757     -63065.221      22124.858      1.5275294    
    418500   418500         255.45997      255.45997      80544.965      80484.047      60.918212     -619.14979      8173.6751     -9943.519       64459.436      18411.997      0              1.6076757     -62379.999      22124.858      1.5275294    
    419000   419000         294.47271      294.47271      80561.722      80491.501      70.221377     -619.37926      8177.5663     -9943.8767      64462.577      18413.006      0              1.6076757     -62928.219      22124.858      1.5275294    
    419500   419500         281.8976       281.8976       80567.614      80500.391      67.222656     -619.13252      8174.8857     -9943.5746      64467.086      18419.519      0              1.6076757     -62884.185      22124.858      1.5275294    
    420000   420000         253.48037      253.48037      80541.21       80480.764      60.446147     -621.93676      8178.0971     -9943.7787      64453.127      18413.647      0              1.6076757     -62899.619      22124.858      1.5275294    
    420500   420500         301.89636      301.89636      80549.635      80477.644      71.991657     -618.85502      8175.5867     -9944.0587      64451.474      18411.889      0              1.6076757     -62294.17       22124.858      1.5275294    
    421000   421000         335.7497       335.7497       80561.405      80481.34       80.064486     -618.06469      8173.7889     -9944.3179      64456.924      18411.403      0              1.6076757     -63502.17       22124.858      1.5275294    
    421500   421500         352.1255       352.1255       80567.538      80483.569      83.969539     -622.49236      8180.5371     -9944.4086      64454.44       18413.885      0              1.6076757     -61961.251      22124.858      1.5275294    
    422000   422000         264.51811      264.51811      80537.769      80474.691      63.07826      -621.80492      8177.5825     -9943.8844      64449.592      18411.599      0              1.6076757     -63309.779      22124.858      1.5275294    
    422500   422500         261.65899      261.65899      80550.871      80488.475      62.396459     -621.55414      8179.6848     -9944.6472      64455.999      18417.385      0              1.6076757     -62408.605      22124.858      1.5275294    
    423000   423000         287.34724      287.34724      80557.512      80488.99       68.522202     -621.49232      8178.5083     -9944.1338      64456.974      18417.526      0              1.6076757     -63691.775      22124.858      1.5275294    
    423500   423500         279.68257      279.68257      80561.108      80494.414      66.69445      -621.19007      8182.6255     -9945.304       64456.612      18420.062      0              1.6076757     -61728.659      22124.858      1.5275294    
    424000   424000         283.42122      283.42122      80560.217      80492.631      67.585987     -620.70856      8175.0432     -9944.3793      64464.095      18416.973      0              1.6076757     -64059.385      22124.858      1.5275294    
    424500   424500         283.48312      283.48312      80568.622      80501.022      67.600747     -622.83663      8182.077      -9944.4187      64466.026      18418.566      0              1.6076757     -61990.369      22124.858      1.5275294    
    425000   425000         315.76168      315.76168      80572.431      80497.133      75.298048     -620.49635      8177.5187     -9944.9004      64465.772      18417.631      0              1.6076757     -63237.42       22124.858      1.5275294    
    425500   425500         322.33933      322.33933      80575.293      80498.427      76.866585     -617.95442      8177.1471     -9945.0382      64468.141      18414.524      0              1.6076757     -62839.604      22124.858      1.5275294    
    426000   426000         303.86761      303.86761      80560.346      80487.884      72.461731     -622.85558      8180.9217     -9944.5898      64459.846      18412.954      0              1.6076757     -62507.227      22124.858      1.5275294    
    426500   426500         325.04773      325.04773      80559.115      80481.603      77.512443     -623.30897      8181.3674     -9944.6346      64455.443      18411.128      0              1.6076757     -63065.292      22124.858      1.5275294    
    427000   427000         337.10742      337.10742      80564.723      80484.335      80.388255     -620.86347      8176.8136     -9944.1306      64457.843      18413.064      0              1.6076757     -62605.1        22124.858      1.5275294    
    427500   427500         356.78154      356.78154      80574.598      80489.519      85.07984      -618.76529      8178.2914     -9944.437       64460.044      18412.778      0              1.6076757     -62750.64       22124.858      1.5275294    
    428000   428000         325.17912      325.17912      80566.65       80489.106      77.543776     -619.69121      8173.6973     -9944.0937      64460.992      18416.594      0              1.6076757     -62757.659      22124.858      1.5275294    
    428500   428500         281.62552      281.62552      80559.529      80492.372      67.157775     -622.22711      8181.4767     -9944.5348      64463.837      18412.213      0              1.6076757     -62841.454      22124.858      1.5275294    
    429000   429000         261.65831      261.65831      80553.309      80490.913      62.396299     -621.45364      8178.0957     -9944.2627      64466.144      18410.783      0              1.6076757     -62816.798      22124.858      1.5275294    
    429500   429500         277.53967      277.53967      80551.829      80485.646      66.183442     -622.75991      8180.0454     -9944.7502      64460.75       18410.752      0              1.6076757     -62773.24       22124.858      1.5275294    
    430000   430000         299.65743      299.65743      80563.494      80492.037      71.457749     -621.32653      8177.8732     -9944.4106      64463.591      18414.702      0              1.6076757     -62941.254      22124.858      1.5275294    
    430500   430500         281.11337      281.11337      80561.56       80494.524      67.035644     -620.11853      8176.6495     -9944.3656      64464.003      18416.748      0              1.6076757     -62677.651      22124.858      1.5275294    
    431000   431000         261.69766      261.69766      80554.559      80492.154      62.405682     -621.456        8178.7529     -9944.04        64463.758      18413.531      0              1.6076757     -62998.389      22124.858      1.5275294    
    431500   431500         262.05901      262.05901      80550.178      80487.686      62.491851     -620.00987      8175.8727     -9944.0135      64460.03       18414.199      0              1.6076757     -62812.288      22124.858      1.5275294    
    432000   432000         299.46316      299.46316      80571.725      80500.313      71.411423     -619.48044      8179.1152     -9944.4099      64466.073      18417.408      0              1.6076757     -62690.654      22124.858      1.5275294    
    432500   432500         328.56666      328.56666      80575.383      80497.032      78.351585     -618.6358       8173.5059     -9944.3045      64466.273      18418.586      0              1.6076757     -62961.157      22124.858      1.5275294    
    433000   433000         295.99551      295.99551      80556.79       80486.206      70.584511     -622.65305      8180.4193     -9944.4196      64459.905      18411.347      0              1.6076757     -62719.731      22124.858      1.5275294    
    433500   433500         287.69379      287.69379      80557.208      80488.603      68.604843     -621.46516      8178.1182     -9944.2331      64460.376      18414.2        0              1.6076757     -62833.619      22124.858      1.5275294    
    434000   434000         292.64269      292.64269      80565.955      80496.171      69.784981     -621.62306      8181.2767     -9944.9951      64466.37       18413.534      0              1.6076757     -62869.939      22124.858      1.5275294    
    434500   434500         283.13299      283.13299      80572.139      80504.622      67.517252     -620.56439      8176.1423     -9943.7477      64469.993      18421.191      0              1.6076757     -62947.59       22124.858      1.5275294    
    435000   435000         234.79531      234.79531      80558.201      80502.211      55.990417     -621.24042      8180.2361     -9944.5694      64469.217      18416.96       0              1.6076757     -62893.966      22124.858      1.5275294    
    435500   435500         244.33559      244.33559      80566.413      80508.147      58.265438     -619.2134       8175.2625     -9944.4526      64473.485      18421.458      0              1.6076757     -62723.211      22124.858      1.5275294    
    436000   436000         288.62621      288.62621      80573.159      80504.332      68.827192     -622.59296      8180.7558     -9944.4548      64475.853      18413.163      0              1.6076757     -63277.778      22124.858      1.5275294    
    436500   436500         281.59837      281.59837      80563.224      80496.073      67.1513       -624.05169      8181.7076     -9944.5416      64467.708      18413.642      0              1.6076757     -62584.426      22124.858      1.5275294    
    437000   437000         270.16261      270.16261      80549.794      80485.37       64.424274     -617.80343      8172.38       -9944.0364      64457.187      18416.035      0              1.6076757     -62592.335      22124.858      1.5275294    
    437500   437500         313.67805      313.67805      80559.744      80484.943      74.801175     -622.3836       8182.3145     -9944.9886      64458.423      18409.97       0              1.6076757     -63241.252      22124.858      1.5275294    
    438000   438000         341.56584      341.56584      80559.141      80477.69       81.451431     -621.58046      8177.5319     -9943.7286      64455.012      18408.848      0              1.6076757     -62483.838      22124.858      1.5275294    
    438500   438500         382.92736      382.92736      80573.322      80482.007      91.314697     -620.81255      8179.241      -9944.3289      64454.42       18411.88       0              1.6076757     -62774.333      22124.858      1.5275294    
    439000   439000         382.00494      382.00494      80570.753      80479.658      91.094733     -619.17807      8174.3835     -9944.171       64447.871      18419.145      0              1.6076757     -62493.873      22124.858      1.5275294    
    439500   439500         349.96524      349.96524      80567.605      80484.15       83.454394     -620.45352      8178.9928     -9944.3854      64452.641      18415.747      0              1.6076757     -63101.93       22124.858      1.5275294    
    440000   440000         311.73711      311.73711      80555.371      80481.033      74.338328     -621.43339      8177.63       -9944.7536      64450.747      18417.236      0              1.6076757     -62725.496      22124.858      1.5275294    
    440500   440500         272.34827      272.34827      80545.289      80480.343      64.945477     -620.07448      8177.4888     -9943.9774      64452.298      18413.001      0              1.6076757     -62720.605      22124.858      1.5275294    
    441000   441000         270.17047      270.17047      80551.298      80486.872      64.426148     -621.69886      8178.2129     -9944.8061      64458.299      18415.257      0              1.6076757     -63043.913      22124.858      1.5275294    
    441500   441500         296.42608      296.42608      80564.805      80494.118      70.687187     -619.15804      8177.9444     -9944.1105      64465.593      18412.24       0              1.6076757     -62554.884      22124.858      1.5275294    
    442000   442000         299.29158      299.29158      80568.014      80496.644      71.370508     -621.7445       8180.6469     -9945.2231      64470.168      18411.189      0              1.6076757     -63025.662      22124.858      1.5275294    
    442500   442500         248.73882      248.73882      80538.501      80479.186      59.315453     -620.53744      8177.372      -9944.6795      64457.734      18407.689      0              1.6076757     -62526.219      22124.858      1.5275294    
    443000   443000         289.33109      289.33109      80549.962      80480.967      68.995283     -623.58297      8181.7044     -9944.9195      64456.759      18409.399      0              1.6076757     -63291.683      22124.858      1.5275294    
    443500   443500         317.34813      317.34813      80557.429      80481.753      75.676359     -624.30819      8181.4225     -9944.4699      64451.648      18415.853      0              1.6076757     -62159.247      22124.858      1.5275294    
    444000   444000         346.35054      346.35054      80561.901      80479.309      82.592414     -621.78431      8180.2011     -9944.8504      64451.232      18412.903      0              1.6076757     -63557.594      22124.858      1.5275294    
    444500   444500         341.78079      341.78079      80561.226      80479.723      81.502689     -623.13077      8182.5744     -9945.135       64452.066      18411.742      0              1.6076757     -62186.156      22124.858      1.5275294    
    445000   445000         318.04137      318.04137      80563.406      80487.564      75.841672     -621.22696      8178.7539     -9944.8972      64460.18       18413.147      0              1.6076757     -63223.876      22124.858      1.5275294    
    445500   445500         262.56516      262.56516      80552.701      80490.088      62.612549     -621.99697      8180.4536     -9944.8853      64464.445      18410.464      0              1.6076757     -62637.71       22124.858      1.5275294    
    446000   446000         253.46233      253.46233      80554.34       80493.898      60.441846     -622.56988      8178.4378     -9944.5092      64466.196      18414.736      0              1.6076757     -63024.961      22124.858      1.5275294    
    446500   446500         263.95353      263.95353      80555.713      80492.77       62.943627     -622.52413      8180.7233     -9944.3182      64466.484      18410.797      0              1.6076757     -62733.613      22124.858      1.5275294    
    447000   447000         277.7196       277.7196       80562.755      80496.528      66.226351     -622.41805      8178.4976     -9944.4519      64470.728      18412.565      0              1.6076757     -63069.069      22124.858      1.5275294    
    447500   447500         296.41858      296.41858      80576.394      80505.709      70.685398     -622.23493      8181.452      -9944.4427      64475.502      18413.824      0              1.6076757     -62390.613      22124.858      1.5275294    
    448000   448000         278.28695      278.28695      80568.643      80502.281      66.361643     -619.65695      8176.3988     -9944.6437      64473.304      18415.272      0              1.6076757     -63571.764      22124.858      1.5275294    
    448500   448500         243.00343      243.00343      80556.053      80498.105      57.947766     -622.39822      8181.1405     -9944.3763      64464.56       18417.572      0              1.6076757     -61964.091      22124.858      1.5275294    
    449000   449000         246.96829      246.96829      80557.701      80498.808      58.893244     -621.98585      8178.2394     -9944.5478      64467.443      18418.052      0              1.6076757     -64030.236      22124.858      1.5275294    
    449500   449500         236.25991      236.25991      80557.391      80501.052      56.339674     -620.82357      8180.2176     -9944.8836      64466.36       18418.574      0              1.6076757     -61953.574      22124.858      1.5275294    
    450000   450000         304.19243      304.19243      80575.153      80502.614      72.539187     -620.77341      8177.8801     -9944.5523      64471.72       18416.731      0              1.6076757     -63724.617      22124.858      1.5275294    
    450500   450500         312.9583       312.9583       80559.315      80484.686      74.629541     -622.02042      8182.5404     -9945.1201      64458.777      18408.901      0              1.6076757     -61942.716      22124.858      1.5275294    
    451000   451000         311.52556      311.52556      80554.853      80480.565      74.287881     -623.1673       8180.4413     -9944.7267      64456.598      18409.812      0              1.6076757     -63689.788      22124.858      1.5275294    
    451500   451500         318.34639      318.34639      80564.605      80488.691      75.914409     -624.60954      8183.1249     -9945.0495      64456.353      18417.264      0              1.6076757     -62144.635      22124.858      1.5275294    
    452000   452000         341.79296      341.79296      80574.374      80492.868      81.505592     -620.98316      8179.7761     -9944.5256      64458.192      18418.801      0              1.6076757     -63267.704      22124.858      1.5275294    
    452500   452500         304.08598      304.08598      80552.597      80480.083      72.513804     -621.49028      8178.9561     -9945.0576      64455.757      18410.311      0              1.6076757     -62664.096      22124.858      1.5275294    
    453000   453000         288.41563      288.41563      80549.053      80480.276      68.776976     -620.91577      8180.6972     -9945.1602      64456.199      18407.847      0              1.6076757     -62957.598      22124.858      1.5275294    
    453500   453500         312.72762      312.72762      80561.796      80487.222      74.574531     -621.45198      8178.7158     -9944.5495      64463.193      18409.707      0              1.6076757     -62305.036      22124.858      1.5275294    
    454000   454000         281.75665      281.75665      80553.796      80486.607      67.189044     -624.36244      8184.2012     -9945.0562      64463.821      18406.396      0              1.6076757     -63539.916      22124.858      1.5275294    
    454500   454500         276.4385       276.4385       80550.232      80484.311      65.920852     -621.99152      8179.3401     -9945.134       64461.476      18409.013      0              1.6076757     -62156.255      22124.858      1.5275294    
    455000   455000         274.22569      274.22569      80550.157      80484.764      65.393176     -623.48588      8183.3694     -9944.8388      64462.551      18405.561      0              1.6076757     -63212.883      22124.858      1.5275294    
    455500   455500         292.06445      292.06445      80562.017      80492.37       69.647092     -622.3558       8177.9903     -9944.4616      64465.21       18414.379      0              1.6076757     -62724.726      22124.858      1.5275294    
    456000   456000         300.22607      300.22607      80561.004      80489.41       71.59335      -621.18056      8182.1751     -9945.3801      64463.785      18408.403      0              1.6076757     -62639.343      22124.858      1.5275294    
    456500   456500         289.06078      289.06078      80550.652      80481.721      68.930823     -623.28908      8179.3594     -9944.531       64459.065      18409.51       0              1.6076757     -63360.906      22124.858      1.5275294    
    457000   457000         290.01655      290.01655      80555.539      80486.38       69.15874      -623.32768      8183.5475     -9944.8952      64460.687      18408.761      0              1.6076757     -61935.687      22124.858      1.5275294    
    457500   457500         322.73243      322.73243      80570.311      80493.35       76.960325     -620.40372      8175.6929     -9944.843       64464.268      18417.028      0              1.6076757     -63642.641      22124.858      1.5275294    
    458000   458000         304.22982      304.22982      80563.054      80490.506      72.548105     -622.90507      8182.9408     -9944.78        64458.603      18415.039      0              1.6076757     -62505.643      22124.858      1.5275294    
    458500   458500         298.81785      298.81785      80557.507      80486.25       71.25754      -621.87585      8178.4989     -9944.4925      64458.158      18414.353      0              1.6076757     -62756.607      22124.858      1.5275294    
    459000   459000         277.0934       277.0934       80541.331      80475.254      66.077023     -622.26506      8178.6517     -9944.8555      64454.396      18407.719      0              1.6076757     -63145.4        22124.858      1.5275294    
    459500   459500         303.10925      303.10925      80550.688      80478.407      72.280889     -620.84011      8178.5055     -9944.7333      64458.187      18405.68       0              1.6076757     -62291.516      22124.858      1.5275294    
    460000   460000         328.86552      328.86552      80561.733      80483.31       78.422853     -622.33608      8180.6219     -9944.579       64462.326      18405.67       0              1.6076757     -63015.251      22124.858      1.5275294    
    460500   460500         326.69991      326.69991      80562.904      80484.998      77.906429     -621.78223      8179.1624     -9944.6959      64462.945      18407.76       0              1.6076757     -62724.074      22124.858      1.5275294    
    461000   461000         339.20947      339.20947      80571.303      80490.414      80.889519     -620.69664      8178.759      -9944.1225      64462.886      18411.981      0              1.6076757     -62483.015      22124.858      1.5275294    
    461500   461500         359.02805      359.02805      80577.545      80491.93       85.615555     -619.71808      8178.0304     -9944.7175      64464.736      18411.991      0              1.6076757     -63120.608      22124.858      1.5275294    
    462000   462000         312.05977      312.05977      80562.858      80488.443      74.415273     -621.3257       8177.7828     -9944.5627      64460.232      18414.709      0              1.6076757     -62421.64       22124.858      1.5275294    
    462500   462500         286.49851      286.49851      80558.47       80490.15       68.319812     -621.27057      8179.7349     -9945.0448      64462.294      18412.829      0              1.6076757     -63100.04       22124.858      1.5275294    
    463000   463000         258.15902      258.15902      80550.115      80488.553      61.561839     -623.07068      8180.5846     -9944.7294      64460.329      18413.831      0              1.6076757     -62778.98       22124.858      1.5275294    
    463500   463500         275.51184      275.51184      80561.849      80496.149      65.699876     -622.71012      8181.0384     -9944.6896      64461.569      18419.334      0              1.6076757     -62920.874      22124.858      1.5275294    
    464000   464000         297.53112      297.53112      80570.737      80499.787      70.9507       -619.87618      8176.0995     -9944.3991      64463.749      18422.606      0              1.6076757     -62869.084      22124.858      1.5275294    
    464500   464500         262.40611      262.40611      80562.617      80500.042      62.574623     -620.46426      8179.1643     -9944.676       64464.77       18419.641      0              1.6076757     -63094.333      22124.858      1.5275294    
    465000   465000         254.4365       254.4365       80559.116      80498.442      60.67415      -618.76409      8172.7345     -9943.9609      64464.178      18422.647      0              1.6076757     -62571.687      22124.858      1.5275294    
    465500   465500         230.78275      230.78275      80546.417      80491.383      55.033563     -621.83284      8179.6921     -9944.5526      64461.837      18414.632      0              1.6076757     -63335.063      22124.858      1.5275294    
    466000   466000         259.31528      259.31528      80549.599      80487.762      61.837568     -621.72569      8178.1905     -9944.5216      64459.483      18414.728      0              1.6076757     -62235.217      22124.858      1.5275294    
    466500   466500         306.23414      306.23414      80561.811      80488.785      73.026065     -619.3668       8177.3125     -9944.1592      64463.655      18409.736      0              1.6076757     -63594.827      22124.858      1.5275294    
    467000   467000         300.92539      300.92539      80564.836      80493.076      71.760113     -621.33533      8178.29       -9944.5099      64463.02       18416.003      0              1.6076757     -61886.939      22124.858      1.5275294    
    467500   467500         290.70621      290.70621      80558.063      80488.739      69.3232       -620.53358      8176.8534     -9943.8179      64459.486      18415.144      0              1.6076757     -63439.325      22124.858      1.5275294    
    468000   468000         298.9977       298.9977       80557.508      80486.208      71.300429     -620.3411       8177.0691     -9944.2319      64457.836      18414.268      0              1.6076757     -62618.779      22124.858      1.5275294    
    468500   468500         319.54351      319.54351      80561.777      80485.577      76.199879     -622.76705      8179.4071     -9944.143       64460.242      18411.23       0              1.6076757     -62715.962      22124.858      1.5275294    
    469000   469000         310.20272      310.20272      80559.409      80485.436      73.97243      -620.61927      8177.0341     -9944.1267      64460.093      18411.447      0              1.6076757     -63135.075      22124.858      1.5275294    
    469500   469500         296.68978      296.68978      80553.96       80483.21       70.750071     -619.17212      8175.6905     -9944.2695      64453.989      18415.364      0              1.6076757     -61934.774      22124.858      1.5275294    
    470000   470000         282.58303      282.58303      80547.165      80479.779      67.386107     -621.26682      8176.47       -9943.7786      64455.034      18411.713      0              1.6076757     -64022.282      22124.858      1.5275294    
    470500   470500         299.34777      299.34777      80555.828      80484.444      71.383907     -622.47663      8180.7946     -9944.7205      64454.684      18414.555      0              1.6076757     -61583.598      22124.858      1.5275294    
    471000   471000         339.25038      339.25038      80566.72       80485.821      80.899276     -619.47914      8175.4225     -9943.9873      64461.587      18410.67       0              1.6076757     -63764.671      22124.858      1.5275294    
    471500   471500         319.66736      319.66736      80559.597      80483.368      76.229415     -622.49702      8178.6667     -9944.8807      64460.682      18409.789      0              1.6076757     -61980.31       22124.858      1.5275294    
    472000   472000         336.34112      336.34112      80573.812      80493.607      80.20552      -620.67618      8178.7734     -9944.5898      64466.163      18412.329      0              1.6076757     -63351.386      22124.858      1.5275294    
    472500   472500         310.95109      310.95109      80567.454      80493.303      74.15089      -619.19603      8175.9313     -9944.2302      64466.438      18412.752      0              1.6076757     -62243.471      22124.858      1.5275294    
    473000   473000         272.62206      272.62206      80553.424      80488.414      65.010766     -624.00012      8181.4467     -9944.564       64461.278      18412.645      0              1.6076757     -63310.321      22124.858      1.5275294    
    473500   473500         270.05519      270.05519      80549.591      80485.193      64.398657     -623.79998      8181.253      -9944.7395      64458.123      18412.749      0              1.6076757     -62663.917      22124.858      1.5275294    
    474000   474000         276.00183      276.00183      80544.805      80478.988      65.816723     -621.79261      8179.209      -9944.6637      64452.629      18411.999      0              1.6076757     -62884.814      22124.858      1.5275294    
    474500   474500         311.88712      311.88712      80556.531      80482.157      74.374102     -620.43886      8177.8713     -9944.866       64454.236      18413.747      0              1.6076757     -62837.699      22124.858      1.5275294    
    475000   475000         332.7799       332.7799       80563.144      80483.788      79.356294     -623.05355      8181.3593     -9945.1373      64455.451      18413.561      0              1.6076757     -62707.378      22124.858      1.5275294    
    475500   475500         293.7511       293.7511       80552.618      80482.569      70.049298     -620.38269      8177.7298     -9944.7793      64457.759      18410.634      0              1.6076757     -63117.746      22124.858      1.5275294    
    476000   476000         258.13385      258.13385      80554.333      80492.777      61.555839     -622.88066      8180.2486     -9945.0048      64460.795      18418.011      0              1.6076757     -62565.83       22124.858      1.5275294    
    476500   476500         256.50179      256.50179      80564.809      80503.643      61.166648     -621.47668      8179.8713     -9944.8015      64465.613      18422.829      0              1.6076757     -63203.073      22124.858      1.5275294    
    477000   477000         268.51029      268.51029      80565.832      80501.802      64.030253     -619.8156       8177.1965     -9945.2239      64464.246      18423.792      0              1.6076757     -62944.723      22124.858      1.5275294    
    477500   477500         253.84151      253.84151      80542.34       80481.808      60.532266     -623.06067      8180.5436     -9945.0523      64453.038      18414.732      0              1.6076757     -62876.255      22124.858      1.5275294    
    478000   478000         286.39349      286.39349      80550.287      80481.993      68.294768     -624.73333      8182.0074     -9944.9445      64455.292      18412.763      0              1.6076757     -62892.689      22124.858      1.5275294    
    478500   478500         317.23249      317.23249      80562.013      80486.364      75.648783     -622.42564      8181.3683     -9944.8316      64457.688      18412.957      0              1.6076757     -62889.059      22124.858      1.5275294    
    479000   479000         305.43702      305.43702      80551.803      80478.967      72.83598      -619.78343      8175.0921     -9944.4393      64454.392      18412.098      0              1.6076757     -62514.687      22124.858      1.5275294    
    479500   479500         319.54377      319.54377      80554.448      80478.248      76.199943     -621.85899      8180.584      -9944.9209      64455.655      18407.181      0              1.6076757     -63334.565      22124.858      1.5275294    
    480000   480000         357.64154      357.64154      80568.394      80483.109      85.284919     -620.97475      8177.9986     -9943.9775      64457.908      18410.547      0              1.6076757     -61724.179      22124.858      1.5275294    
    480500   480500         374.47058      374.47058      80575.336      80486.038      89.298054     -621.96664      8179.355      -9944.5777      64457.729      18413.89       0              1.6076757     -63861.528      22124.858      1.5275294    
    481000   481000         287.9188       287.9188       80547.898      80479.24       68.6585       -620.31328      8177.6381     -9944.1367      64449.08       18415.364      0              1.6076757     -61872.462      22124.858      1.5275294    
    481500   481500         270.8108       270.8108       80553.789      80489.21       64.578845     -620.95693      8177.7128     -9944.43        64459.244      18416.032      0              1.6076757     -63701.685      22124.858      1.5275294    
    482000   482000         273.57566      273.57566      80569.749      80504.511      65.238167     -623.19352      8179.0578     -9944.5038      64470.917      18420.626      0              1.6076757     -62183.992      22124.858      1.5275294    
    482500   482500         281.36031      281.36031      80569.093      80501.998      67.094531     -619.11996      8177.7884     -9944.4184      64474.398      18411.743      0              1.6076757     -63468.727      22124.858      1.5275294    
    483000   483000         288.45347      288.45347      80559.773      80490.987      68.786        -621.06337      8176.6404     -9944.1519      64468.002      18409.952      0              1.6076757     -62028.566      22124.858      1.5275294    
    483500   483500         275.21729      275.21729      80553.227      80487.597      65.629638     -621.11936      8178.6348     -9944.5304      64465.588      18407.416      0              1.6076757     -63537.274      22124.858      1.5275294    
    484000   484000         298.1087       298.1087       80567.788      80496.699      71.088432     -620.92201      8177.6678     -9943.9489      64466.825      18415.47       0              1.6076757     -62080.91       22124.858      1.5275294    
    484500   484500         323.02348      323.02348      80576.05       80499.021      77.02973      -621.84109      8179.8037     -9944.2485      64468.354      18415.345      0              1.6076757     -63429.099      22124.858      1.5275294    
    485000   485000         298.87334      298.87334      80563.749      80492.478      71.270773     -622.03491      8178.2986     -9944.4692      64461.403      18417.673      0              1.6076757     -62383.818      22124.858      1.5275294    
    485500   485500         308.09519      308.09519      80556.793      80483.323      73.469858     -617.99974      8175.8838     -9944.3939      64456.375      18411.851      0              1.6076757     -63018.546      22124.858      1.5275294    
    486000   486000         341.54549      341.54549      80562.477      80481.03       81.446578     -620.54255      8176.54       -9944.6933      64454.762      18413.356      0              1.6076757     -62829.869      22124.858      1.5275294    
    486500   486500         398.09197      398.09197      80580.929      80485.998      94.930923     -623.4294       8183.1754     -9944.1856      64457.448      18411.382      0              1.6076757     -62276.042      22124.858      1.5275294    
    487000   487000         341.88893      341.88893      80556.779      80475.25       81.528476     -620.83854      8174.352      -9944.1726      64453.136      18411.166      0              1.6076757     -63275.413      22124.858      1.5275294    
    487500   487500         317.95171      317.95171      80554.305      80478.485      75.820293     -621.33928      8181.8281     -9944.2711      64456.016      18404.644      0              1.6076757     -62110.154      22124.858      1.5275294    
    488000   488000         277.35151      277.35151      80549.502      80483.364      66.138572     -620.27977      8173.4463     -9944.3861      64463.28       18409.695      0              1.6076757     -63322.037      22124.858      1.5275294    
    488500   488500         275.16584      275.16584      80561.571      80495.954      65.617367     -621.90953      8181.3486     -9943.7214      64469.778      18408.85       0              1.6076757     -62218.678      22124.858      1.5275294    
    489000   489000         261.0343       261.0343       80570.972      80508.724      62.247494     -621.40548      8176.4175     -9944.1322      64479.121      18417.115      0              1.6076757     -63348.277      22124.858      1.5275294    
    489500   489500         252.77315      252.77315      80578.707      80518.429      60.277499     -618.12161      8176.4289     -9943.5908      64484.62       18417.485      0              1.6076757     -62552.679      22124.858      1.5275294    
    490000   490000         218.46528      218.46528      80553.003      80500.907      52.09628      -619.00705      8173.0031     -9944.245       64472.616      18416.932      0              1.6076757     -62940.048      22124.858      1.5275294    
    490500   490500         254.4052       254.4052       80556.669      80496.003      60.666686     -622.14799      8181.3565     -9944.1814      64468.875      18410.493      0              1.6076757     -62813.055      22124.858      1.5275294    
    491000   491000         317.08732      317.08732      80578.772      80503.158      75.614166     -618.02202      8173.9578     -9943.9082      64470.812      18418.711      0              1.6076757     -62963.265      22124.858      1.5275294    
    491500   491500         343.76319      343.76319      80577.227      80495.252      81.975421     -623.30074      8182.3909     -9944.6222      64466.554      18412.623      0              1.6076757     -62491.983      22124.858      1.5275294    
    492000   492000         362.79904      362.79904      80570.503      80483.988      86.514802     -620.94993      8177.2187     -9943.7573      64459.625      18410.244      0              1.6076757     -62967.882      22124.858      1.5275294    
    492500   492500         347.17732      347.17732      80565.312      80482.522      82.789572     -617.13003      8174.2606     -9944.1724      64458.745      18409.212      0              1.6076757     -62482.19       22124.858      1.5275294    
    493000   493000         328.39998      328.39998      80557.977      80479.665      78.311837     -618.76405      8174.8743     -9943.6931      64455.336      18410.304      0              1.6076757     -62607.598      22124.858      1.5275294    
    493500   493500         298.83537      298.83537      80544.251      80472.99       71.261717     -619.11121      8175.9349     -9944.192       64453.518      18405.232      0              1.6076757     -62984.99       22124.858      1.5275294    
    494000   494000         311.82957      311.82957      80548.46       80474.1        74.360378     -623.37362      8179.621      -9944.0903      64449.738      18410.597      0              1.6076757     -62444.913      22124.858      1.5275294    
    494500   494500         339.7818       339.7818       80558.37       80477.344      81.026        -620.47711      8178.7799     -9944.6762      64453.092      18409.018      0              1.6076757     -62845.266      22124.858      1.5275294    
    495000   495000         332.14515      332.14515      80566.643      80487.438      79.204928     -618.31732      8174.6905     -9944.4611      64463.666      18410.253      0              1.6076757     -62757.462      22124.858      1.5275294    
    495500   495500         307.06953      307.06953      80570.086      80496.861      73.225276     -620.74055      8178.5468     -9944.4373      64470.511      18411.374      0              1.6076757     -62778.149      22124.858      1.5275294    
    496000   496000         289.84662      289.84662      80568.826      80499.708      69.118218     -621.38084      8179.9974     -9944.0434      64469.143      18414.384      0              1.6076757     -62459.533      22124.858      1.5275294    
    496500   496500         257.7883       257.7883       80556.32       80494.847      61.473436     -622.76646      8178.3357     -9944.6654      64467.912      18414.423      0              1.6076757     -63402.215      22124.858      1.5275294    
    497000   497000         262.11572      262.11572      80557.152      80494.647      62.505373     -619.80978      8178.4008     -9944.131       64462.837      18415.743      0              1.6076757     -62506.682      22124.858      1.5275294    
    497500   497500         289.52361      289.52361      80560.492      80491.451      69.041192     -620.49288      8177.4744     -9944.7387      64460.872      18416.728      0              1.6076757     -62822.528      22124.858      1.5275294    
    498000   498000         336.80692      336.80692      80576.88       80496.563      80.316596     -620.45296      8180.1133     -9944.2121      64466.389      18413.119      0              1.6076757     -62816.221      22124.858      1.5275294    
    498500   498500         347.96102      347.96102      80572.634      80489.657      82.976456     -621.86577      8178.429      -9944.7222      64459.706      18416.503      0              1.6076757     -63224.182      22124.858      1.5275294    
    499000   499000         335.64691      335.64691      80557.552      80477.512      80.039974     -620.88186      8179.4124     -9944.5666      64451.279      18410.661      0              1.6076757     -61687.824      22124.858      1.5275294    
    499500   499500         342.38753      342.38753      80558.098      80476.45       81.647376     -620.93552      8177.5216     -9944.3652      64455.958      18406.664      0              1.6076757     -64106.858      22124.858      1.5275294    
    500000   500000         359.76839      359.76839      80569.821      80484.029      85.792099     -619.22799      8177.23       -9944.7358      64456.758      18412.398      0              1.6076757     -61330.274      22124.858      1.5275294    
    500500   500500         347.31141      347.31141      80558.192      80475.371      82.821548     -617.80643      8174.2879     -9944.2899      64453.453      18408.118      0              1.6076757     -63488.787      22124.858      1.5275294    
    501000   501000         304.22712      304.22712      80547.899      80475.351      72.54746      -621.76224      8178.4576     -9944.6499      64452.892      18408.806      0              1.6076757     -62655.412      22124.858      1.5275294    
    501500   501500         286.33909      286.33909      80561.428      80493.146      68.281795     -621.06265      8178.7812     -9943.7363      64459.876      18417.68       0              1.6076757     -62417.243      22124.858      1.5275294    
    502000   502000         280.66367      280.66367      80558.71       80491.781      66.928407     -621.28474      8178.0199     -9944.5515      64464.804      18413.186      0              1.6076757     -63442.172      22124.858      1.5275294    
    502500   502500         259.20441      259.20441      80561.857      80500.046      61.811129     -618.95643      8176.9125     -9943.9492      64464.889      18419.543      0              1.6076757     -62542.871      22124.858      1.5275294    
    503000   503000         247.69747      247.69747      80564.291      80505.224      59.067129     -620.60945      8176.0831     -9944.3428      64469.25       18423.235      0              1.6076757     -63019.239      22124.858      1.5275294    
    503500   503500         251.01744      251.01744      80563.823      80503.964      59.858826     -620.1786       8177.332      -9944.1036      64469.668      18419.639      0              1.6076757     -62915.675      22124.858      1.5275294    
    504000   504000         247.5718       247.5718       80554.411      80495.374      59.037161     -620.49348      8176.7101     -9944.0732      64468.704      18412.918      0              1.6076757     -62894.022      22124.858      1.5275294    
    504500   504500         275.77488      275.77488      80555.756      80489.993      65.762603     -621.34722      8177.5571     -9944.4824      64463.294      18413.364      0              1.6076757     -62674.904      22124.858      1.5275294    
    505000   505000         325.28736      325.28736      80567.416      80489.847      77.569586     -620.78614      8179.09       -9944.1275      64462.915      18411.148      0              1.6076757     -62947.84       22124.858      1.5275294    
    505500   505500         318.75685      318.75685      80569.518      80493.506      76.01229      -619.38623      8176.2919     -9944.363       64463.109      18416.246      0              1.6076757     -62395.257      22124.858      1.5275294    
    506000   506000         323.16691      323.16691      80574.253      80497.189      77.063934     -619.74432      8178.2521     -9943.9055      64465.378      18415.601      0              1.6076757     -63331.902      22124.858      1.5275294    
    506500   506500         296.11621      296.11621      80560.218      80489.605      70.613294     -621.79634      8177.482      -9944.2306      64456.614      18419.928      0              1.6076757     -62277.373      22124.858      1.5275294    
    507000   507000         281.71311      281.71311      80550.675      80483.496      67.178661     -621.25101      8180.8058     -9944.5717      64453.654      18413.251      0              1.6076757     -63349.821      22124.858      1.5275294    
    507500   507500         290.44678      290.44678      80548.164      80478.903      69.261334     -618.85543      8173.4595     -9943.7803      64451.45       18415.021      0              1.6076757     -62470.583      22124.858      1.5275294    
    508000   508000         326.76741      326.76741      80556.209      80478.287      77.922527     -620.9648       8180.2578     -9945.2641      64450.063      18412.587      0              1.6076757     -62826.017      22124.858      1.5275294    
    508500   508500         351.29956      351.29956      80562.982      80479.209      83.772582     -620.28839      8176.1411     -9943.9851      64451.069      18414.665      0              1.6076757     -62970.244      22124.858      1.5275294    
    509000   509000         333.54064      333.54064      80563.799      80484.261      79.537704     -619.87985      8179.6665     -9945.169       64452.441      18415.595      0              1.6076757     -62463.226      22124.858      1.5275294    
    509500   509500         298.74857      298.74857      80555.152      80483.911      71.24102      -621.05076      8177.4607     -9944.5391      64454.138      18416.294      0              1.6076757     -63045.814      22124.858      1.5275294    
    510000   510000         285.06431      285.06431      80553.959      80485.981      67.977805     -622.7699       8182.0632     -9944.7109      64458.846      18410.945      0              1.6076757     -62832.832      22124.858      1.5275294    
    510500   510500         272.27896      272.27896      80554.588      80489.659      64.92895      -619.18609      8176.1286     -9944.3382      64464.966      18410.481      0              1.6076757     -62582.839      22124.858      1.5275294    
    511000   511000         245.16527      245.16527      80546.982      80488.519      58.463289     -622.06238      8179.7145     -9944.8803      64466.383      18407.757      0              1.6076757     -63077.125      22124.858      1.5275294    
    511500   511500         258.24661      258.24661      80555.037      80493.454      61.582728     -621.69701      8179.6346     -9944.7381      64470.56       18408.087      0              1.6076757     -62459.13       22124.858      1.5275294    
    512000   512000         277.26499      277.26499      80567.489      80501.371      66.117942     -620.6386       8177.6014     -9944.718       64476.693      18410.826      0              1.6076757     -63107.496      22124.858      1.5275294    
    512500   512500         272.20057      272.20057      80565.303      80500.393      64.910256     -620.84616      8180.0328     -9945.1074      64475.928      18408.778      0              1.6076757     -62638.01       22124.858      1.5275294    
    513000   513000         278.46897      278.46897      80555.772      80489.367      66.405049     -619.65236      8176.5058     -9944.8923      64466.104      18409.694      0              1.6076757     -62581.708      22124.858      1.5275294    
    513500   513500         299.88136      299.88136      80550.177      80478.666      71.511149     -620.82582      8178.4469     -9944.8359      64458.504      18405.769      0              1.6076757     -63360.137      22124.858      1.5275294    
    514000   514000         311.04954      311.04954      80549.981      80475.806      74.174369     -621.57253      8177.8373     -9944.952       64452.177      18410.709      0              1.6076757     -61881.129      22124.858      1.5275294    
    514500   514500         346.22335      346.22335      80562.025      80479.463      82.562084     -621.15562      8179.1205     -9944.3162      64454.254      18409.952      0              1.6076757     -63559.94       22124.858      1.5275294    
    515000   515000         355.16727      355.16727      80574.028      80489.333      84.694894     -620.20984      8176.1186     -9944.7287      64457.053      18419.493      0              1.6076757     -62382.742      22124.858      1.5275294    
    515500   515500         365.86425      365.86425      80577.113      80489.867      87.245747     -618.59303      8178.2451     -9944.4745      64460.727      18412.355      0              1.6076757     -62700.836      22124.858      1.5275294    
    516000   516000         308.23301      308.23301      80557.037      80483.534      73.502724     -621.25431      8176.944      -9944.9005      64459.239      18411.898      0              1.6076757     -62971.083      22124.858      1.5275294    
    516500   516500         270.45508      270.45508      80550.157      80485.663      64.494018     -621.38354      8181.1956     -9944.7927      64459.213      18409.824      0              1.6076757     -62608.735      22124.858      1.5275294    
    517000   517000         271.70386      271.70386      80557.21       80492.418      64.791808     -621.65385      8176.8843     -9944.5074      64464.396      18415.691      0              1.6076757     -63107.771      22124.858      1.5275294    
    517500   517500         284.31947      284.31947      80563.249      80495.449      67.800187     -621.7255       8180.1448     -9944.9681      64467.877      18412.514      0              1.6076757     -62479.332      22124.858      1.5275294    
    518000   518000         321.95554      321.95554      80566.815      80490.04       76.775065     -618.33724      8174.2176     -9944.5065      64462.54       18414.518      0              1.6076757     -63164.231      22124.858      1.5275294    
    518500   518500         259.72041      259.72041      80533.603      80471.669      61.934177     -620.69246      8177.9953     -9944.7657      64448.447      18409.077      0              1.6076757     -62544.618      22124.858      1.5275294    
    519000   519000         308.0462       308.0462       80559.993      80486.535      73.458178     -622.70099      8179.2039     -9944.755       64456.673      18416.507      0              1.6076757     -62885.652      22124.858      1.5275294    
    519500   519500         308.83209      308.83209      80565.54       80491.894      73.645584     -621.22539      8179.5623     -9944.6484      64458.923      18417.675      0              1.6076757     -63096.327      22124.858      1.5275294    
    520000   520000         304.38755      304.38755      80571.963      80499.377      72.585718     -617.46492      8173.2746     -9944.3614      64460.032      18426.29       0              1.6076757     -62499.507      22124.858      1.5275294    
    520500   520500         308.87675      308.87675      80561.164      80487.508      73.656233     -622.27688      8181.8698     -9945.0222      64459.916      18411.413      0              1.6076757     -63109.563      22124.858      1.5275294    
    521000   521000         291.48096      291.48096      80554.412      80484.904      69.50795      -619.64054      8173.9588     -9944.0446      64458.379      18414.644      0              1.6076757     -62759.837      22124.858      1.5275294    
    521500   521500         262.6733       262.6733       80547.898      80485.26       62.638337     -622.82142      8181.705      -9945.0704      64460.784      18409.055      0              1.6076757     -62635.205      22124.858      1.5275294    
    522000   522000         276.96599      276.96599      80560.434      80494.387      66.046641     -619.82567      8175.4664     -9944.1728      64465.082      18416.23       0              1.6076757     -63098.093      22124.858      1.5275294    
    522500   522500         283.39462      283.39462      80567.69       80500.11       67.579642     -620.0976       8178.754      -9944.7695      64467.82       18416.796      0              1.6076757     -62816.616      22124.858      1.5275294    
    523000   523000         277.92582      277.92582      80560.078      80493.802      66.275527     -622.35487      8176.8513     -9944.5537      64466.114      18416.138      0              1.6076757     -62603.115      22124.858      1.5275294    
    523500   523500         297.77683      297.77683      80559.944      80488.935      71.009293     -621.18457      8178.6978     -9944.0548      64463.015      18410.854      0              1.6076757     -63416.948      22124.858      1.5275294    
    524000   524000         320.47192      320.47192      80572.188      80495.767      76.421273     -621.28326      8179.6427     -9945.1351      64465.341      18415.594      0              1.6076757     -61808.497      22124.858      1.5275294    
    524500   524500         294.54211      294.54211      80561.446      80491.208      70.237925     -618.93484      8174.5533     -9944.1945      64466.204      18411.972      0              1.6076757     -63944.302      22124.858      1.5275294    
    525000   525000         266.67255      266.67255      80553.141      80489.549      63.592016     -622.19145      8179.9094     -9944.8748      64463.132      18411.967      0              1.6076757     -61826.458      22124.858      1.5275294    
    525500   525500         290.23962      290.23962      80564.718      80495.506      69.211934     -621.44252      8176.8621     -9944.1047      64467.855      18414.728      0              1.6076757     -63465.094      22124.858      1.5275294    
    526000   526000         297.3697       297.3697       80564.492      80493.58       70.912207     -620.59257      8180.0044     -9944.88        64465.42       18412.021      0              1.6076757     -62510.663      22124.858      1.5275294    
    526500   526500         301.30939      301.30939      80562.05       80490.199      71.851685     -619.8837       8174.9362     -9944.1211      64465.943      18411.716      0              1.6076757     -62982.364      22124.858      1.5275294    
    527000   527000         280.12485      280.12485      80554.707      80487.907      66.799918     -619.16661      8176.1787     -9944.6697      64460.885      18413.072      0              1.6076757     -62397.324      22124.858      1.5275294    
    527500   527500         270.37261      270.37261      80549.445      80484.971      64.474351     -622.70014      8179.764      -9944.4294      64459.428      18411.3        0              1.6076757     -63384.518      22124.858      1.5275294    
    528000   528000         301.62774      301.62774      80557.467      80485.54       71.9276       -622.72048      8180.1324     -9944.6746      64457.309      18413.885      0              1.6076757     -62223.304      22124.858      1.5275294    
    528500   528500         352.14078      352.14078      80567.907      80483.934      83.973182     -619.11346      8177.9708     -9944.7494      64458.098      18410.119      0              1.6076757     -63254.987      22124.858      1.5275294    
    529000   529000         383.30188      383.30188      80572.846      80481.442      91.404007     -619.6549       8175.4752     -9944.6673      64459.861      18408.82       0              1.6076757     -62231.616      22124.858      1.5275294    
    529500   529500         385.75581      385.75581      80575.269      80483.279      91.989184     -623.04579      8183.3112     -9944.9432      64459.766      18406.584      0              1.6076757     -62889.105      22124.858      1.5275294    
    530000   530000         338.35624      338.35624      80561.026      80480.34       80.686055     -621.41273      8176.8456     -9944.5856      64459.322      18408.562      0              1.6076757     -62717.824      22124.858      1.5275294    
    530500   530500         322.396        322.396        80557.076      80480.196      76.8801       -620.65634      8179.9499     -9944.5806      64458.421      18405.454      0              1.6076757     -62475.661      22124.858      1.5275294    
    531000   531000         336.99265      336.99265      80562.288      80481.927      80.360887     -620.39638      8176.4368     -9944.9328      64460.698      18408.514      0              1.6076757     -63115.598      22124.858      1.5275294    
    531500   531500         315.3061       315.3061       80566.736      80491.547      75.189408     -619.40868      8178.086      -9944.2296      64467.352      18408.139      0              1.6076757     -62217.717      22124.858      1.5275294    
    532000   532000         307.15745      307.15745      80569.71       80496.464      73.246242     -621.90652      8177.9822     -9945.2059      64472.258      18411.728      0              1.6076757     -63083.409      22124.858      1.5275294    
    532500   532500         274.93761      274.93761      80553.335      80487.772      65.562942     -623.00056      8180.0372     -9944.2446      64466.695      18406.678      0              1.6076757     -62918.091      22124.858      1.5275294    
    533000   533000         268.24153      268.24153      80547.525      80483.559      63.966163     -621.05023      8178.6714     -9945.014       64458.605      18410.739      0              1.6076757     -62259.399      22124.858      1.5275294    
    533500   533500         320.76929      320.76929      80564.713      80488.221      76.492186     -621.71072      8179.9478     -9944.6796      64461.395      18411.66       0              1.6076757     -63677.303      22124.858      1.5275294    
    534000   534000         294.65881      294.65881      80551.675      80481.409      70.265756     -622.01803      8179.8822     -9944.8741      64451.36       18415.451      0              1.6076757     -61983.673      22124.858      1.5275294    
    534500   534500         303.12203      303.12203      80554.576      80482.292      72.283934     -621.75376      8178.9182     -9944.6036      64452.588      18415.536      0              1.6076757     -63539.537      22124.858      1.5275294    
    535000   535000         298.47469      298.47469      80556.407      80485.231      71.175709     -623.68653      8182.4136     -9944.9293      64452.178      18417.648      0              1.6076757     -62521.098      22124.858      1.5275294    
    535500   535500         318.18385      318.18385      80567.734      80491.858      75.875649     -620.519        8179.4342     -9944.304       64456.176      18419.463      0              1.6076757     -62937.916      22124.858      1.5275294    
    536000   536000         334.46659      334.46659      80572.656      80492.898      79.75851      -621.54731      8179.8031     -9945.0222      64457.547      18420.509      0              1.6076757     -63040.246      22124.858      1.5275294    
    536500   536500         324.07249      324.07249      80566.053      80488.773      77.279884     -620.80877      8178.8848     -9944.537       64456.605      18417.022      0              1.6076757     -62509.774      22124.858      1.5275294    
    537000   537000         283.22437      283.22437      80553.294      80485.755      67.539043     -623.20798      8180.8523     -9944.7514      64458.04       18413.215      0              1.6076757     -63219.755      22124.858      1.5275294    
    537500   537500         266.81765      266.81765      80548.062      80484.436      63.626618     -623.02574      8181.3722     -9944.8027      64457.958      18411.326      0              1.6076757     -62586.524      22124.858      1.5275294    
    538000   538000         283.17094      283.17094      80562.276      80494.75       67.526302     -621.46792      8180.5792     -9944.6653      64460.885      18417.811      0              1.6076757     -63022.663      22124.858      1.5275294    
    538500   538500         305.09063      305.09063      80563.307      80490.554      72.753376     -621.37663      8180.5138     -9945.2514      64460.259      18414.801      0              1.6076757     -62838.854      22124.858      1.5275294    
    539000   539000         289.61758      289.61758      80557.026      80487.962      69.063599     -620.5664       8177.6833     -9944.282       64459.942      18413.578      0              1.6076757     -62863.664      22124.858      1.5275294    
    539500   539500         288.74614      288.74614      80556.275      80487.419      68.855793     -625.03638      8184.1508     -9945.6692      64463.378      18408.988      0              1.6076757     -62646.961      22124.858      1.5275294    
    540000   540000         312.23852      312.23852      80567.91       80493.452      74.457898     -623.12789      8181.7702     -9944.8529      64466.15       18411.905      0              1.6076757     -63235.974      22124.858      1.5275294    
    540500   540500         299.75805      299.75805      80555.777      80484.295      71.481744     -622.34165      8180.9549     -9945.608       64456.889      18412.793      0              1.6076757     -62320.376      22124.858      1.5275294    
    541000   541000         283.22218      283.22218      80547.251      80479.712      67.538521     -622.01461      8179.5281     -9944.775       64453.585      18411.781      0              1.6076757     -63462.574      22124.858      1.5275294    
    541500   541500         295.29539      295.29539      80559.565      80489.147      70.417558     -622.42699      8181.4878     -9945.0426      64458.435      18415.086      0              1.6076757     -62134.82       22124.858      1.5275294    
    542000   542000         296.08191      296.08191      80560.545      80489.94       70.605115     -622.84116      8181.1923     -9944.6841      64463.282      18411.383      0              1.6076757     -63631.031      22124.858      1.5275294    
    542500   542500         271.44912      271.44912      80547.495      80482.764      64.731062     -624.07412      8183.3117     -9945.1821      64457.443      18409.658      0              1.6076757     -62142.858      22124.858      1.5275294    
    543000   543000         298.81649      298.81649      80552.263      80481.006      71.257215     -621.55725      8179.6479     -9944.9457      64455.671      18410.582      0              1.6076757     -63340.98       22124.858      1.5275294    
    543500   543500         328.64802      328.64802      80565.932      80487.561      78.370986     -622.69025      8182.3159     -9945.135       64458.314      18413.149      0              1.6076757     -62438.068      22124.858      1.5275294    
    544000   544000         323.34012      323.34012      80566.584      80489.479      77.105239     -623.63716      8182.7685     -9945.2215      64461.543      18412.418      0              1.6076757     -63086.635      22124.858      1.5275294    
    544500   544500         303.47704      303.47704      80554.514      80482.145      72.368594     -621.94979      8178.9258     -9944.9073      64459.307      18409.163      0              1.6076757     -62612.973      22124.858      1.5275294    
    545000   545000         297.15603      297.15603      80547.329      80476.468      70.861254     -621.2463       8180.5013     -9944.9936      64455.404      18405.195      0              1.6076757     -62727.048      22124.858      1.5275294    
    545500   545500         323.87362      323.87362      80567.149      80489.917      77.23246      -622.76347      8180.5993     -9944.8087      64460.514      18414.768      0              1.6076757     -63086.15       22124.858      1.5275294    
    546000   546000         302.63913      302.63913      80572.946      80500.778      72.168781     -623.51863      8184.7753     -9944.68        64462.841      18419.752      0              1.6076757     -62515.729      22124.858      1.5275294    
    546500   546500         281.88228      281.88228      80561.931      80494.712      67.219003     -620.71102      8177.1305     -9944.7389      64460.403      18421.021      0              1.6076757     -63343.237      22124.858      1.5275294    
    547000   547000         268.31169      268.31169      80556.992      80493.01       63.982894     -621.37226      8181.8249     -9944.9104      64460.633      18415.227      0              1.6076757     -62662.431      22124.858      1.5275294    
    547500   547500         264.02095      264.02095      80557.759      80494.799      62.959704     -624.1788       8181.2286     -9943.8072      64464.67       18415.279      0              1.6076757     -62858.755      22124.858      1.5275294    
    548000   548000         263.3239       263.3239       80566.146      80503.353      62.793483     -620.63268      8179.3758     -9944.987       64470.433      18417.556      0              1.6076757     -63145.55       22124.858      1.5275294    
    548500   548500         282.81525      282.81525      80577.671      80510.23       67.441484     -624.44478      8183.6757     -9944.7121      64470.277      18423.826      0              1.6076757     -62784.266      22124.858      1.5275294    
    549000   549000         278.04715      278.04715      80574.352      80508.047      66.304459     -620.31536      8178.2478     -9944.5282      64469.403      18423.633      0              1.6076757     -63018.996      22124.858      1.5275294    
    549500   549500         277.29159      277.29159      80568.43       80502.306      66.124285     -620.88592      8180.8083     -9944.9087      64466.591      18419.094      0              1.6076757     -62937.821      22124.858      1.5275294    
    550000   550000         284.08811      284.08811      80562.233      80494.488      67.745016     -622.56976      8180.8112     -9944.8302      64465.718      18413.751      0              1.6076757     -62796.913      22124.858      1.5275294    
    550500   550500         286.5765       286.5765       80550.3        80481.961      68.338409     -619.93438      8177.2813     -9944.5334      64459.419      18408.121      0              1.6076757     -62851.18       22124.858      1.5275294    
    551000   551000         286.65973      286.65973      80542.678      80474.32       68.358256     -622.8697       8181.3167     -9945.0307      64453.594      18405.701      0              1.6076757     -62651.611      22124.858      1.5275294    
    551500   551500         353.44523      353.44523      80568.643      80484.359      84.284248     -621.66056      8180.3896     -9944.4942      64458.048      18410.469      0              1.6076757     -62878.355      22124.858      1.5275294    
    552000   552000         339.59045      339.59045      80566.679      80485.699      80.980371     -620.6436       8179.6994     -9944.6727      64455.479      18414.23       0              1.6076757     -62738.992      22124.858      1.5275294    
    552500   552500         277.55923      277.55923      80548.146      80481.958      66.188106     -623.61305      8182.4521     -9944.9348      64454.391      18412.055      0              1.6076757     -62855.326      22124.858      1.5275294    
    553000   553000         271.67646      271.67646      80547.983      80483.198      64.785275     -622.32785      8180.846      -9944.6093      64454.95       18412.732      0              1.6076757     -62980.849      22124.858      1.5275294    
    553500   553500         308.61322      308.61322      80566.652      80493.059      73.59339      -624.1364       8184.2033     -9945.4534      64460.021      18416.817      0              1.6076757     -62733.111      22124.858      1.5275294    
    554000   554000         320.75604      320.75604      80561.837      80485.348      76.489026     -623.22121      8180.7652     -9944.4572      64456.704      18413.949      0              1.6076757     -63050.552      22124.858      1.5275294    
    554500   554500         329.04419      329.04419      80559.167      80480.702      78.465458     -620.39893      8179.1077     -9944.7146      64454.429      18410.671      0              1.6076757     -62690.496      22124.858      1.5275294    
    555000   555000         317.73618      317.73618      80555.553      80479.784      75.768897     -621.1144       8178.7971     -9944.4351      64455.491      18409.437      0              1.6076757     -62668.803      22124.858      1.5275294    
    555500   555500         322.74798      322.74798      80569.636      80492.671      76.964034     -620.22768      8178.9723     -9944.5052      64464.9        18411.924      0              1.6076757     -62880.388      22124.858      1.5275294    
    556000   556000         294.79058      294.79058      80575.749      80505.452      70.297178     -619.4944       8179.7152     -9944.6418      64470.68       18417.585      0              1.6076757     -62756.237      22124.858      1.5275294    
    556500   556500         255.51335      255.51335      80559.208      80498.277      60.930941     -622.50183      8178.827      -9944.5564      64465.343      18419.558      0              1.6076757     -63039.942      22124.858      1.5275294    
    557000   557000         245.36753      245.36753      80558.79       80500.278      58.511519     -620.35893      8178.9256     -9943.4002      64465.012      18418.492      0              1.6076757     -62891.241      22124.858      1.5275294    
    557500   557500         226.64635      226.64635      80548.436      80494.389      54.047177     -621.84818      8178.1574     -9944.7375      64461.992      18419.218      0              1.6076757     -62914.011      22124.858      1.5275294    
    558000   558000         243.36904      243.36904      80557.287      80499.252      58.034951     -621.24603      8181.4006     -9944.2304      64462.969      18418.751      0              1.6076757     -63014.244      22124.858      1.5275294    
    558500   558500         275.78819      275.78819      80567.816      80502.051      65.765776     -618.2999       8174.6546     -9944.4354      64465.635      18422.888      0              1.6076757     -62992.278      22124.858      1.5275294    
    559000   559000         272.752        272.752        80554.194      80489.152      65.041753     -622.99664      8183.2643     -9944.7         64459.703      18412.273      0              1.6076757     -62675.02       22124.858      1.5275294    
    559500   559500         317.02376      317.02376      80558.746      80483.147      75.599009     -619.4219       8175.3356     -9944.0788      64459.421      18410.283      0              1.6076757     -63026.755      22124.858      1.5275294    
    560000   560000         350.88856      350.88856      80566.914      80483.24       83.674572     -623.00624      8185.053      -9944.9103      64459.972      18404.524      0              1.6076757     -62311.471      22124.858      1.5275294    
    560500   560500         327.51224      327.51224      80556.166      80478.066      78.100142     -619.78775      8175.3783     -9944.1305      64457.04       18407.959      0              1.6076757     -63182.967      22124.858      1.5275294    
    561000   561000         300.13039      300.13039      80548.287      80476.717      71.570534     -620.2071       8178.9731     -9944.4048      64454.493      18406.255      0              1.6076757     -62302.719      22124.858      1.5275294    
    561500   561500         314.55928      314.55928      80561.122      80486.111      75.011316     -622.82072      8179.1795     -9944.8342      64459.601      18413.377      0              1.6076757     -63185.806      22124.858      1.5275294    
    562000   562000         340.13482      340.13482      80579.099      80497.989      81.110184     -621.34342      8181.9193     -9944.3156      64464.21       18415.911      0              1.6076757     -62516.939      22124.858      1.5275294    
    562500   562500         331.16024      331.16024      80572.676      80493.706      78.970063     -620.79641      8178.362      -9944.5391      64465.816      18413.255      0              1.6076757     -63092.979      22124.858      1.5275294    
    563000   563000         315.60022      315.60022      80563.227      80487.967      75.259545     -620.21942      8179.4516     -9944.5374      64461.665      18410          0              1.6076757     -62456.857      22124.858      1.5275294    
    563500   563500         313.74087      313.74087      80557.67       80482.853      74.816155     -620.57872      8177.9441     -9944.5759      64459.971      18408.485      0              1.6076757     -62959.395      22124.858      1.5275294    
    564000   564000         289.69253      289.69253      80548.999      80479.917      69.081473     -621.23937      8178.7188     -9944.1972      64456.834      18408.193      0              1.6076757     -62679.773      22124.858      1.5275294    
    564500   564500         272.87736      272.87736      80543.438      80478.367      65.071646     -621.3691       8180.1049     -9944.0753      64454.502      18407.597      0              1.6076757     -62695.324      22124.858      1.5275294    
    565000   565000         284.38106      284.38106      80554.6        80486.785      67.814873     -617.31397      8173.0378     -9943.9468      64460.999      18412.401      0              1.6076757     -63076.787      22124.858      1.5275294    
    565500   565500         292.5678       292.5678       80563.933      80494.166      69.767122     -621.29611      8178.729      -9944.3125      64464.953      18414.485      0              1.6076757     -62300.642      22124.858      1.5275294    
    566000   566000         299.88599      299.88599      80571.191      80499.678      71.512254     -621.52354      8178.7107     -9943.5308      64469.086      18415.328      0              1.6076757     -63418.631      22124.858      1.5275294    
    566500   566500         291.59166      291.59166      80559.938      80490.404      69.534348     -621.83243      8178.9544     -9944.067       64460.795      18414.947      0              1.6076757     -62381.069      22124.858      1.5275294    
    567000   567000         303.63892      303.63892      80560.053      80487.646      72.407194     -620.65565      8177.7797     -9943.5564      64456.483      18415.987      0              1.6076757     -62978.158      22124.858      1.5275294    
    567500   567500         329.43534      329.43534      80569.761      80491.202      78.558734     -618.21972      8173.656      -9944.3227      64458.623      18419.857      0              1.6076757     -63118.908      22124.858      1.5275294    
    568000   568000         301.67603      301.67603      80563.518      80491.579      71.939116     -620.2634       8180.4432     -9944.1708      64455.34       18418.622      0              1.6076757     -62158.131      22124.858      1.5275294    
    568500   568500         282.88406      282.88406      80550.982      80483.524      67.457892     -621.84005      8176.7185     -9944.4593      64457.178      18414.32       0              1.6076757     -63691.705      22124.858      1.5275294    
    569000   569000         280.47316      280.47316      80560.785      80493.902      66.882976     -622.70418      8181.6791     -9944.1837      64462.51       18414.993      0              1.6076757     -62142.334      22124.858      1.5275294    
    569500   569500         286.20241      286.20241      80559.536      80491.287      68.249201     -621.45969      8178.8145     -9944.4787      64465.754      18411.049      0              1.6076757     -63290.443      22124.858      1.5275294    
    570000   570000         263.04433      263.04433      80546.59       80483.864      62.726815     -620.973        8178.5585     -9944.7131      64458.972      18410.412      0              1.6076757     -62660.65       22124.858      1.5275294    
    570500   570500         262.0439       262.0439       80550.95       80488.462      62.488246     -619.21673      8176.9882     -9944.4563      64459.794      18413.745      0              1.6076757     -62761.279      22124.858      1.5275294    
    571000   571000         260.02068      260.02068      80553.396      80491.391      62.005781     -621.0964       8178.4616     -9943.7501      64461.121      18415.046      0              1.6076757     -63090.954      22124.858      1.5275294    
    571500   571500         330.48271      330.48271      80578.085      80499.277      78.808494     -622.45932      8180.7128     -9944.7945      64466.719      18417.491      0              1.6076757     -62509.767      22124.858      1.5275294    
    572000   572000         329.35425      329.35425      80575.91       80497.371      78.539396     -620.81118      8178.574      -9944.3579      64461.678      18420.68       0              1.6076757     -63271.332      22124.858      1.5275294    
    572500   572500         289.75044      289.75044      80553.55       80484.455      69.095282     -620.74964      8180.597      -9944.9835      64454.988      18412.995      0              1.6076757     -62398.022      22124.858      1.5275294    
    573000   573000         277.43796      277.43796      80553.59       80487.431      66.159189     -619.76726      8174.6017     -9944.1118      64460.925      18414.175      0              1.6076757     -63299.046      22124.858      1.5275294    
    573500   573500         346.78739      346.78739      80586.226      80503.529      82.696587     -621.21074      8181.1019     -9944.0959      64469.804      18416.322      0              1.6076757     -62328.374      22124.858      1.5275294    
    574000   574000         326.47968      326.47968      80568.47       80490.616      77.853913     -621.06426      8176.2118     -9943.9755      64465.64       18412.197      0              1.6076757     -63114.445      22124.858      1.5275294    
    574500   574500         304.98451      304.98451      80562.488      80489.76       72.728071     -620.40132      8178.5846     -9944.3939      64464.314      18410.048      0              1.6076757     -62428.364      22124.858      1.5275294    
    575000   575000         284.7036       284.7036       80558.62       80490.728      67.891788     -619.97712      8177.8532     -9944.075       64464.051      18411.269      0              1.6076757     -63036.312      22124.858      1.5275294    
    575500   575500         278.09131      278.09131      80558.773      80492.458      66.314991     -620.17956      8175.9151     -9944.9296      64460.415      18419.63       0              1.6076757     -62834.232      22124.858      1.5275294    
    576000   576000         291.62122      291.62122      80562.54       80492.999      69.541396     -622.67315      8183.9988     -9944.5161      64456.993      18417.588      0              1.6076757     -62733.204      22124.858      1.5275294    
    576500   576500         323.45093      323.45093      80571.044      80493.912      77.131662     -620.3908       8174.7497     -9944.7747      64459.786      18422.934      0              1.6076757     -63340.49       22124.858      1.5275294    
    577000   577000         314.10234      314.10234      80560.904      80486.002      74.902352     -621.20187      8181.5517     -9944.5417      64452.48       18416.106      0              1.6076757     -62271.945      22124.858      1.5275294    
    577500   577500         319.58758      319.58758      80559.743      80483.533      76.21039      -621.56397      8176.9576     -9944.2871      64453.725      18417.094      0              1.6076757     -63403.82       22124.858      1.5275294    
    578000   578000         278.79111      278.79111      80549.889      80483.407      66.481867     -623.11529      8183.1995     -9944.9478      64453.962      18412.701      0              1.6076757     -62519.777      22124.858      1.5275294    
    578500   578500         287.62121      287.62121      80559.45       80490.863      68.587535     -620.58878      8176.1271     -9944.0196      64459.845      18417.891      0              1.6076757     -63034.638      22124.858      1.5275294    
    579000   579000         300.04616      300.04616      80567.02       80495.47       71.550449     -622.98045      8183.63       -9944.4737      64462.439      18415.248      0              1.6076757     -62834.785      22124.858      1.5275294    
    579500   579500         287.3567       287.3567       80570.773      80502.248      68.52446      -619.99982      8174.9244     -9944.0128      64463.518      18426.21       0              1.6076757     -63027.084      22124.858      1.5275294    
    580000   580000         259.44407      259.44407      80555.887      80494.018      61.868279     -620.85741      8178.7227     -9943.8104      64460.628      18417.728      0              1.6076757     -62666.839      22124.858      1.5275294    
    580500   580500         269.9099       269.9099       80553.913      80489.548      64.364012     -623.70632      8180.3983     -9944.3809      64460.973      18414.656      0              1.6076757     -63215.657      22124.858      1.5275294    
    581000   581000         341.23916      341.23916      80579.248      80497.874      81.37353      -619.33737      8177.8537     -9943.9908      64469.735      18412.006      0              1.6076757     -62377.338      22124.858      1.5275294    
    581500   581500         356.55131      356.55131      80578.469      80493.444      85.024937     -622.12968      8181.2867     -9944.5464      64469.847      18407.379      0              1.6076757     -62927.104      22124.858      1.5275294    
    582000   582000         310.41071      310.41071      80556.297      80482.275      74.022029     -622.92338      8179.1124     -9944.5399      64456.663      18412.356      0              1.6076757     -62851.972      22124.858      1.5275294    
    582500   582500         281.05778      281.05778      80551.607      80484.585      67.022389     -622.17088      8181.7983     -9944.1369      64455.226      18412.26       0              1.6076757     -62506.629      22124.858      1.5275294    
    583000   583000         271.96329      271.96329      80547.95       80483.096      64.853672     -621.33475      8175.63       -9944.0766      64456.452      18414.818      0              1.6076757     -63606.856      22124.858      1.5275294    
    583500   583500         291.58698      291.58698      80558.287      80488.754      69.533231     -621.1258       8180.5959     -9944.47        64458.619      18413.528      0              1.6076757     -61658.507      22124.858      1.5275294    
    584000   584000         345.45864      345.45864      80565.566      80483.186      82.379728     -618.55506      8175.1068     -9943.9179      64461.281      18407.664      0              1.6076757     -63905.779      22124.858      1.5275294    
    584500   584500         337.27897      337.27897      80560.04       80479.611      80.429163     -622.76575      8180.03       -9944.9557      64457.645      18408.05       0              1.6076757     -61829.427      22124.858      1.5275294    
    585000   585000         262.9547       262.9547       80540.233      80477.528      62.705442     -622.24534      8179.5902     -9943.8478      64457.954      18404.469      0              1.6076757     -63096.33       22124.858      1.5275294    
    585500   585500         286.9743       286.9743       80560.414      80491.981      68.43327      -622.5412       8180.274      -9944.7181      64466.653      18410.706      0              1.6076757     -62667.376      22124.858      1.5275294    
    586000   586000         324.87369      324.87369      80568.354      80490.883      77.47094      -621.95615      8180.3899     -9944.1162      64464.872      18410.086      0              1.6076757     -63183.608      22124.858      1.5275294    
    586500   586500         359.08353      359.08353      80574.358      80488.73       85.628784     -620.28233      8177.1217     -9944.8471      64459.161      18415.969      0              1.6076757     -62003.036      22124.858      1.5275294    
    587000   587000         411.86186      411.86186      80581.337      80483.123      98.214559     -622.03298      8181.9175     -9944.296       64456.654      18409.273      0              1.6076757     -63436.572      22124.858      1.5275294    
    587500   587500         343.53942      343.53942      80559.224      80477.302      81.922061     -621.35629      8176.099      -9944.4958      64449.532      18415.915      0              1.6076757     -62434.829      22124.858      1.5275294    
    588000   588000         344.00139      344.00139      80557.339      80475.307      82.032225     -623.68308      8184.6905     -9944.5251      64444.839      18412.378      0              1.6076757     -62739.873      22124.858      1.5275294    
    588500   588500         354.80805      354.80805      80565.11       80480.5        84.609231     -622.79937      8176.9934     -9944.353       64449.039      18420.013      0              1.6076757     -63363.87       22124.858      1.5275294    
    589000   589000         323.65746      323.65746      80561.549      80484.368      77.180913     -621.14357      8182.3938     -9944.5725      64453.598      18412.485      0              1.6076757     -62061.587      22124.858      1.5275294    
    589500   589500         308.02759      308.02759      80555.163      80481.709      73.453739     -622.06094      8177.535      -9944.5531      64458.064      18411.116      0              1.6076757     -63602.932      22124.858      1.5275294    
    590000   590000         266.14039      266.14039      80544.856      80481.391      63.465116     -621.77439      8181.1741     -9944.1035      64458.422      18406.065      0              1.6076757     -62052.881      22124.858      1.5275294    
    590500   590500         237.33208      237.33208      80542.983      80486.388      56.595349     -622.74139      8179.5156     -9944.8439      64462.53       18410.32       0              1.6076757     -63635.581      22124.858      1.5275294    
    591000   591000         263.43474      263.43474      80567.473      80504.653      62.819913     -622.27363      8181.6425     -9944.364       64469.999      18418.042      0              1.6076757     -62124.226      22124.858      1.5275294    
    591500   591500         255.26498      255.26498      80557.52       80496.648      60.871713     -618.76246      8174.8702     -9944.3095      64470.459      18412.783      0              1.6076757     -63517.053      22124.858      1.5275294    
    592000   592000         276.69814      276.69814      80555.913      80489.931      65.982768     -622.7934       8183.3987     -9945.0319      64467.89       18404.859      0              1.6076757     -62261.023      22124.858      1.5275294    
    592500   592500         314.72179      314.72179      80557.929      80482.879      75.05007      -620.76727      8175.6437     -9943.8484      64464.828      18405.415      0              1.6076757     -62978.784      22124.858      1.5275294    
    593000   593000         327.10688      327.10688      80564.979      80486.976      78.003478     -624.84414      8185.4927     -9945.2583      64465.137      18404.841      0              1.6076757     -62824.534      22124.858      1.5275294    
    593500   593500         312.74492      312.74492      80577.043      80502.465      74.578656     -620.00852      8177.2675     -9944.1627      64468.219      18419.541      0              1.6076757     -62450.714      22124.858      1.5275294    
    594000   594000         304.60414      304.60414      80569.798      80497.161      72.637367     -620.59163      8178.5058     -9945.2597      64468.003      18414.895      0              1.6076757     -63483.998      22124.858      1.5275294    
    594500   594500         309.25446      309.25446      80566.113      80492.366      73.746303     -623.23486      8181.9158     -9944.67        64460.602      18416.146      0              1.6076757     -62244.718      22124.858      1.5275294    
    595000   595000         307.93881      307.93881      80556.307      80482.875      73.432568     -623.29244      8181.1118     -9944.7252      64454.508      18413.665      0              1.6076757     -63228.497      22124.858      1.5275294    
    595500   595500         280.95844      280.95844      80542.188      80475.189      66.998698     -621.7392       8178.2072     -9944.5558      64449.899      18411.771      0              1.6076757     -62732.709      22124.858      1.5275294    
    596000   596000         296.82737      296.82737      80545.589      80474.806      70.782881     -620.83735      8179.9301     -9944.5246      64444.953      18413.677      0              1.6076757     -62845.049      22124.858      1.5275294    
    596500   596500         329.23107      329.23107      80559.4        80480.89       78.510022     -622.71875      8179.6557     -9944.5186      64448.455      18418.409      0              1.6076757     -62752.478      22124.858      1.5275294    
    597000   597000         337.1733       337.1733       80572.912      80492.508      80.403964     -623.76892      8183.6669     -9945.0191      64461.199      18414.822      0              1.6076757     -63125.623      22124.858      1.5275294    
    597500   597500         303.84531      303.84531      80569.394      80496.937      72.456413     -622.12075      8180.9813     -9944.8937      64464.299      18417.064      0              1.6076757     -62567.193      22124.858      1.5275294    
    598000   598000         302.25309      302.25309      80568.235      80496.158      72.076725     -622.12921      8181.7713     -9945.6752      64466.817      18413.767      0              1.6076757     -63090.128      22124.858      1.5275294    
    598500   598500         268.03341      268.03341      80554.62       80490.703      63.916535     -621.69473      8179.6499     -9944.777       64465.444      18410.473      0              1.6076757     -62874.733      22124.858      1.5275294    
    599000   599000         245.56547      245.56547      80548.525      80489.966      58.558721     -622.77522      8179.6269     -9944.7924      64466.107      18410.193      0              1.6076757     -62601.043      22124.858      1.5275294    
    599500   599500         300.01786      300.01786      80558.808      80487.264      71.543699     -622.16911      8182.3465     -9944.9427      64462.693      18407.729      0              1.6076757     -62994.14       22124.858      1.5275294    
    600000   600000         347.24107      347.24107      80563.663      80480.858      82.804774     -621.89406      8178.9218     -9944.5926      64451.005      18415.81       0              1.6076757     -62944.039      22124.858      1.5275294    
    600500   600500         359.28796      359.28796      80573.456      80487.778      85.677532     -620.87922      8181.9919     -9945.2486      64455.18       18415.126      0              1.6076757     -62466.943      22124.858      1.5275294    
    601000   601000         336.82251      336.82251      80558.832      80478.511      80.320315     -622.88126      8180.2177     -9945.2633      64452.367      18412.464      0              1.6076757     -63102.487      22124.858      1.5275294    
    601500   601500         325.78756      325.78756      80549.057      80471.368      77.688866     -622.35764      8180.6881     -9944.7177      64446.752      18409.396      0              1.6076757     -62726.914      22124.858      1.5275294    
    602000   602000         366.21417      366.21417      80558.624      80471.295      87.329191     -624.32864      8184.0512     -9945.1152      64445.008      18410.072      0              1.6076757     -62428.284      22124.858      1.5275294    
    602500   602500         355.7506       355.7506       80567.776      80482.942      84.833998     -621.64998      8179.2391     -9944.6359      64454.39       18413.991      0              1.6076757     -63537.918      22124.858      1.5275294    
    603000   603000         321.28255      321.28255      80572.721      80496.106      76.614581     -621.73246      8181.3879     -9945.2623      64459.456      18420.65       0              1.6076757     -62036.796      22124.858      1.5275294    
    603500   603500         275.285        275.285        80561.915      80496.269      65.645783     -624.67514      8183.9806     -9945.0219      64465.115      18415.263      0              1.6076757     -63527.672      22124.858      1.5275294    
    604000   604000         254.6561       254.6561       80560.933      80500.206      60.726516     -623.31058      8182.7326     -9945.4346      64470.314      18414.297      0              1.6076757     -62738.859      22124.858      1.5275294    
    604500   604500         251.36613      251.36613      80568.853      80508.911      59.941974     -624.35018      8183.9479     -9944.8066      64475.093      18417.419      0              1.6076757     -62954.434      22124.858      1.5275294    
    605000   605000         263.73074      263.73074      80573.117      80510.227      62.890499     -622.70323      8181.3121     -9945.0118      64476.544      18418.478      0              1.6076757     -63013.12       22124.858      1.5275294    
    605500   605500         283.35396      283.35396      80580.605      80513.035      67.569947     -619.84422      8177.2565     -9944.2426      64480.714      18417.544      0              1.6076757     -62831.335      22124.858      1.5275294    
    606000   606000         282.29817      282.29817      80567.35       80500.032      67.318178     -623.19971      8183.6183     -9944.9274      64468.037      18414.895      0              1.6076757     -62988.88       22124.858      1.5275294    
    606500   606500         269.96707      269.96707      80558.252      80493.874      64.377644     -622.47099      8179.9808     -9945.0511      64462.34       18417.468      0              1.6076757     -62598.815      22124.858      1.5275294    
    607000   607000         274.70094      274.70094      80555.955      80490.449      65.506507     -621.38841      8181.5343     -9945.2355      64460.846      18413.085      0              1.6076757     -63330.511      22124.858      1.5275294    
    607500   607500         365.10335      365.10335      80590.919      80503.855      87.0643       -622.5489       8181.3879     -9944.9292      64469.428      18418.909      0              1.6076757     -62385.662      22124.858      1.5275294    
    608000   608000         306.36976      306.36976      80558.658      80485.6        73.058404     -622.90218      8182.3207     -9944.9121      64461.459      18408.027      0              1.6076757     -63096.58       22124.858      1.5275294    
    608500   608500         315.37641      315.37641      80555.504      80480.298      75.206173     -620.12779      8176.5063     -9944.6766      64453.725      18413.263      0              1.6076757     -62519.841      22124.858      1.5275294    
    609000   609000         297.48428      297.48428      80548.251      80477.311      70.93953      -623.07463      8182.8622     -9944.6258      64449.75       18410.792      0              1.6076757     -63137.99       22124.858      1.5275294    
    609500   609500         316.52315      316.52315      80560.797      80485.318      75.479632     -621.57427      8177.443      -9944.6853      64452.663      18419.864      0              1.6076757     -62703.657      22124.858      1.5275294    
    610000   610000         294.5245       294.5245       80552.51       80482.276      70.233726     -619.74473      8179.2762     -9944.5929      64452.91       18412.819      0              1.6076757     -62754.961      22124.858      1.5275294    
    610500   610500         290.66679      290.66679      80548.387      80479.073      69.313799     -621.79245      8178.58       -9945.0139      64454.107      18411.585      0              1.6076757     -63084.827      22124.858      1.5275294    
    611000   611000         271.45765      271.45765      80546.133      80481.4        64.733094     -622.88324      8182.5423     -9944.627       64454.85       18409.911      0              1.6076757     -62432.968      22124.858      1.5275294    
    611500   611500         292.28406      292.28406      80562.868      80493.169      69.699461     -621.61498      8179.8566     -9944.9548      64467.146      18411.129      0              1.6076757     -63420.579      22124.858      1.5275294    
    612000   612000         247.67782      247.67782      80563.257      80504.195      59.062442     -620.52481      8178.859      -9944.7815      64472.822      18416.213      0              1.6076757     -62210.742      22124.858      1.5275294    
    612500   612500         246.022        246.022        80555.816      80497.148      58.667588     -618.1912       8177.4354     -9944.9406      64470.094      18411.143      0              1.6076757     -63418.306      22124.858      1.5275294    
    613000   613000         263.28257      263.28257      80541.748      80478.964      62.783626     -621.83941      8177.4801     -9944.5139      64455.724      18410.506      0              1.6076757     -62490.875      22124.858      1.5275294    
    613500   613500         325.16572      325.16572      80566.418      80488.878      77.540581     -622.21139      8182.2646     -9944.2055      64459.053      18412.369      0              1.6076757     -62857.459      22124.858      1.5275294    
    614000   614000         321.59304      321.59304      80570.296      80493.607      76.68862      -621.95035      8177.5218     -9944.6751      64466.048      18415.055      0              1.6076757     -63037.855      22124.858      1.5275294    
    614500   614500         246.14624      246.14624      80537.947      80479.25       58.697214     -621.09476      8181.3851     -9944.6439      64454.603      18407.393      0              1.6076757     -62592.307      22124.858      1.5275294    
    615000   615000         286.79476      286.79476      80552.902      80484.511      68.390457     -619.38438      8174.288      -9944.1426      64456.766      18415.377      0              1.6076757     -62978.177      22124.858      1.5275294    
    615500   615500         274.12235      274.12235      80559.008      80493.64       65.368532     -622.8549       8181.9518     -9944.6442      64458.389      18419.19       0              1.6076757     -62833.001      22124.858      1.5275294    
    616000   616000         287.46296      287.46296      80564.671      80496.121      68.549797     -622.11995      8178.4553     -9944.76        64459.24       18423.698      0              1.6076757     -62941.508      22124.858      1.5275294    
    616500   616500         286.16302      286.16302      80560.851      80492.611      68.239808     -619.45149      8177.5188     -9944.2853      64457.423      18419.798      0              1.6076757     -63105.09       22124.858      1.5275294    
    617000   617000         295.3324       295.3324       80571.156      80500.73       70.426383     -618.72743      8175.1673     -9944.2527      64460.345      18426.59       0              1.6076757     -62504.689      22124.858      1.5275294    
    617500   617500         298.48681      298.48681      80565.222      80494.044      71.178599     -622.92225      8182.6449     -9944.267       64460.272      18416.709      0              1.6076757     -63451.452      22124.858      1.5275294    
    618000   618000         265.50369      265.50369      80542.556      80479.242      63.313286     -622.06495      8176.5732     -9944.4385      64448.795      18418.77       0              1.6076757     -62418.126      22124.858      1.5275294    
    618500   618500         294.87994      294.87994      80546.369      80476.051      70.318487     -621.11252      8181.466      -9944.3731      64448.604      18409.859      0              1.6076757     -63067.642      22124.858      1.5275294    
    619000   619000         301.17181      301.17181      80555.736      80483.918      71.818877     -619.43954      8173.7073     -9944.0497      64458.855      18413.237      0              1.6076757     -62700.222      22124.858      1.5275294    
    619500   619500         291.71335      291.71335      80562.901      80493.337      69.563368     -620.11921      8180.7394     -9944.3431      64465.757      18409.695      0              1.6076757     -62825.543      22124.858      1.5275294    
    620000   620000         287.07394      287.07394      80569.056      80500.599      68.45703      -622.1514       8176.4899     -9944.0316      64471.186      18417.499      0              1.6076757     -62574.165      22124.858      1.5275294    
    620500   620500         280.27356      280.27356      80557.093      80490.258      66.83538      -622.1948       8181.4453     -9944.8416      64460.666      18413.575      0              1.6076757     -63161.762      22124.858      1.5275294    
    621000   621000         302.83199      302.83199      80555.521      80483.306      72.214771     -620.96273      8177.3367     -9944.2539      64455.435      18414.143      0              1.6076757     -62464.422      22124.858      1.5275294    
    621500   621500         305.0274       305.0274       80556.246      80483.508      72.738298     -621.70711      8180.5615     -9944.5423      64456.409      18411.178      0              1.6076757     -63332.501      22124.858      1.5275294    
    622000   622000         358.18803      358.18803      80568.95       80483.535      85.415237     -622.93733      8181.1016     -9944.9803      64451.983      18416.76       0              1.6076757     -62008.72       22124.858      1.5275294    
    622500   622500         359.2769       359.2769       80564.745      80479.07       85.674895     -621.12908      8178.0316     -9944.2506      64451.489      18413.321      0              1.6076757     -63518.916      22124.858      1.5275294    
    623000   623000         303.93347      303.93347      80556.212      80483.735      72.477435     -622.58587      8180.9774     -9944.9297      64454.77       18413.895      0              1.6076757     -62285.601      22124.858      1.5275294    
    623500   623500         299.42439      299.42439      80557.124      80485.722      71.402179     -621.88313      8179.5085     -9944.7222      64459.492      18411.719      0              1.6076757     -63124.688      22124.858      1.5275294    
    624000   624000         314.91115      314.91115      80568.151      80493.056      75.095226     -622.06579      8181.5421     -9944.4926      64461.606      18414.859      0              1.6076757     -62698.38       22124.858      1.5275294    
    624500   624500         286.48412      286.48412      80555.551      80487.235      68.316379     -622.18928      8178.1021     -9944.1297      64461.088      18412.756      0              1.6076757     -62815.375      22124.858      1.5275294    
    625000   625000         245.64224      245.64224      80549.728      80491.151      58.577028     -620.692        8178.9266     -9944.4059      64466.74       18408.974      0              1.6076757     -62947.415      22124.858      1.5275294    
    625500   625500         242.95358      242.95358      80555.542      80497.606      57.935877     -619.66453      8175.969      -9943.9194      64471.251      18412.362      0              1.6076757     -62441.28       22124.858      1.5275294    
    626000   626000         270.82324      270.82324      80560.174      80495.592      64.58181      -622.54812      8181.4805     -9944.8043      64470.165      18409.692      0              1.6076757     -63445.51       22124.858      1.5275294    
    626500   626500         307.99465      307.99465      80569.587      80496.142      73.445883     -620.64768      8180.0007     -9944.7767      64468.731      18411.227      0              1.6076757     -62048.147      22124.858      1.5275294    
    627000   627000         349.30915      349.30915      80582.74       80499.442      83.297939     -621.36679      8178.938      -9944.6551      64469.472      18415.447      0              1.6076757     -63373.302      22124.858      1.5275294    
    627500   627500         319.77103      319.77103      80562.802      80486.548      76.254137     -622.51311      8180.5939     -9944.2643      64459.168      18411.955      0              1.6076757     -62726.507      22124.858      1.5275294    
    628000   628000         286.98157      286.98157      80552.071      80483.636      68.435003     -622.66234      8180.0759     -9944.6967      64456.356      18412.955      0              1.6076757     -62350.795      22124.858      1.5275294    
    628500   628500         281.64388      281.64388      80556.124      80488.962      67.162154     -621.83552      8180.6997     -9944.6493      64464.073      18409.066      0              1.6076757     -63650.65       22124.858      1.5275294    
    629000   629000         290.84406      290.84406      80567.806      80498.45       69.356071     -621.55416      8179.1945     -9944.8868      64464.889      18419.2        0              1.6076757     -62052.906      22124.858      1.5275294    
    629500   629500         316.3085       316.3085       80555.641      80480.213      75.428445     -624.58043      8184.0348     -9945.0526      64455.047      18409.157      0              1.6076757     -63206.242      22124.858      1.5275294    
    630000   630000         292.03775      292.03775      80547.174      80477.534      69.640724     -620.9509       8176.3314     -9944.8853      64454          18411.43       0              1.6076757     -62975.679      22124.858      1.5275294    
    630500   630500         306.8678       306.8678       80557.369      80484.192      73.177169     -622.25918      8181.967      -9944.7318      64458.275      18409.333      0              1.6076757     -62119.505      22124.858      1.5275294    
    631000   631000         353.32554      353.32554      80567.153      80482.897      84.255706     -622.20474      8177.8974     -9945.0032      64461.421      18409.179      0              1.6076757     -63617.108      22124.858      1.5275294    
    631500   631500         325.73409      325.73409      80554.283      80476.607      77.676116     -622.05452      8180.7249     -9944.3652      64455.081      18405.613      0              1.6076757     -61899.862      22124.858      1.5275294    
    632000   632000         323.29735      323.29735      80556.848      80479.753      77.095039     -622.86946      8179.6686     -9944.7092      64455.581      18410.474      0              1.6076757     -63367.018      22124.858      1.5275294    
    632500   632500         321.27258      321.27258      80565.189      80488.576      76.612203     -621.60425      8181.5793     -9944.7403      64458.23       18413.504      0              1.6076757     -62477.403      22124.858      1.5275294    
    633000   633000         294.96687      294.96687      80553.233      80482.893      70.339217     -620.43891      8175.6658     -9944.0979      64456.285      18413.872      0              1.6076757     -62908.25       22124.858      1.5275294    
    633500   633500         282.47745      282.47745      80544.017      80476.657      67.360929     -621.44615      8179.5391     -9944.5886      64452.684      18408.861      0              1.6076757     -62721.391      22124.858      1.5275294    
    634000   634000         289.4248       289.4248       80553.45       80484.433      69.017629     -620.61024      8176.6946     -9943.8731      64457.395      18413.219      0              1.6076757     -62932.943      22124.858      1.5275294    
    634500   634500         302.51931      302.51931      80563.064      80490.923      72.140208     -622.05689      8179.9452     -9944.8856      64462.122      18414.191      0              1.6076757     -62530.791      22124.858      1.5275294    
    635000   635000         338.53012      338.53012      80567.94       80487.212      80.727519     -620.72429      8177.3773     -9943.9732      64455.285      18417.64       0              1.6076757     -63231.17       22124.858      1.5275294    
    635500   635500         322.12358      322.12358      80562.341      80485.526      76.815138     -621.40677      8179.7822     -9945.0702      64452.393      18418.22       0              1.6076757     -62406.131      22124.858      1.5275294    
    636000   636000         277.25216      277.25216      80555.739      80489.625      66.114883     -622.19034      8178.9675     -9944.465       64461.727      18413.978      0              1.6076757     -63083.879      22124.858      1.5275294    
    636500   636500         267.08957      267.08957      80553.345      80489.653      63.691462     -622.59022      8181.2613     -9944.8804      64460.039      18414.216      0              1.6076757     -62990.217      22124.858      1.5275294    
    637000   637000         303.70218      303.70218      80562.621      80490.199      72.422281     -620.46749      8177.1966     -9944.5336      64459.85       18416.546      0              1.6076757     -62379.99       22124.858      1.5275294    
    637500   637500         324.36367      324.36367      80571.538      80494.188      77.349318     -620.324        8179.0389     -9944.9494      64469.092      18409.723      0              1.6076757     -63463.809      22124.858      1.5275294    
    638000   638000         264.8879       264.8879       80561.243      80498.076      63.166442     -621.42001      8179.0849     -9944.476       64470.452      18412.828      0              1.6076757     -61901.117      22124.858      1.5275294    
    638500   638500         257.88368      257.88368      80552.929      80491.433      61.496181     -621.08403      8177.8717     -9945.0903      64470.897      18407.23       0              1.6076757     -63795.235      22124.858      1.5275294    
    639000   639000         251.41955      251.41955      80538.659      80478.704      59.954713     -622.87527      8180.0807     -9944.45        64456.494      18407.847      0              1.6076757     -61958.144      22124.858      1.5275294    
    639500   639500         339.13545      339.13545      80568.37       80487.498      80.871869     -620.021        8176.2829     -9944.5362      64459.681      18414.484      0              1.6076757     -63408.448      22124.858      1.5275294    
    640000   640000         322.17338      322.17338      80564.721      80487.894      76.827011     -621.22838      8180.2453     -9944.9631      64456.952      18415.28       0              1.6076757     -62531.4        22124.858      1.5275294    
    640500   640500         268.74079      268.74079      80539.079      80474.993      64.08522      -620.74601      8177.3597     -9944.6481      64451.792      18409.628      0              1.6076757     -62734.638      22124.858      1.5275294    
    641000   641000         293.29657      293.29657      80549.715      80479.774      69.94091      -621.55758      8177.2304     -9944.7578      64454.652      18412.6        0              1.6076757     -63199.666      22124.858      1.5275294    
    641500   641500         301.63464      301.63464      80557.748      80485.819      71.929245     -621.94224      8180.4966     -9944.6145      64454.102      18416.169      0              1.6076757     -62199.894      22124.858      1.5275294    
    642000   642000         300.5586       300.5586       80560.473      80488.801      71.672648     -620.07045      8176.2862     -9944.7469      64460.17       18415.554      0              1.6076757     -63447.522      22124.858      1.5275294    
    642500   642500         295.55385      295.55385      80569.955      80499.476      70.47919      -620.08717      8179.0437     -9944.6565      64470.123      18413.445      0              1.6076757     -62399.368      22124.858      1.5275294    
    643000   643000         314.65004      314.65004      80572.81       80497.777      75.03296      -619.64617      8176.2546     -9945.1631      64471.021      18413.703      0              1.6076757     -62953.628      22124.858      1.5275294    
    643500   643500         325.3407       325.3407       80560.506      80482.924      77.582305     -621.28768      8177.9416     -9944.6507      64459.885      18409.428      0              1.6076757     -62488.172      22124.858      1.5275294    
    644000   644000         302.51468      302.51468      80553.051      80480.912      72.139104     -622.91094      8180.2348     -9944.7807      64457.585      18409.177      0              1.6076757     -63215.853      22124.858      1.5275294    
    644500   644500         304.94858      304.94858      80559.509      80486.79       72.719504     -619.80843      8176.2329     -9944.8142      64460.134      18413.438      0              1.6076757     -62181.302      22124.858      1.5275294    
    645000   645000         367.1057       367.1057       80568.262      80480.72       87.541789     -619.7861       8177.7776     -9944.561       64453.717      18411.964      0              1.6076757     -63310.187      22124.858      1.5275294    
    645500   645500         377.26182      377.26182      80567.802      80477.838      89.963666     -621.53685      8176.6884     -9944.9533      64450.223      18415.809      0              1.6076757     -62368.57       22124.858      1.5275294    
    646000   646000         285.89343      285.89343      80539.06       80470.884      68.175521     -621.86793      8179.001      -9944.887       64449.115      18407.915      0              1.6076757     -62892.231      22124.858      1.5275294    
    646500   646500         283.16172      283.16172      80551.155      80483.631      67.524104     -623.10149      8179.7007     -9944.7351      64460.261      18409.898      0              1.6076757     -62804.11       22124.858      1.5275294    
    647000   647000         293.63811      293.63811      80558.721      80488.699      70.022354     -620.35789      8177.4309     -9944.7587      64465.37       18409.407      0              1.6076757     -62782.61       22124.858      1.5275294    
    647500   647500         319.63055      319.63055      80569.202      80492.982      76.220636     -619.26282      8176.6898     -9944.8757      64468.672      18410.15       0              1.6076757     -62632.803      22124.858      1.5275294    
    648000   648000         301.30614      301.30614      80560.267      80488.416      71.850911     -622.88051      8180.0526     -9944.5859      64465.797      18408.425      0              1.6076757     -62792.441      22124.858      1.5275294    
    648500   648500         288.96011      288.96011      80553.599      80484.692      68.906815     -621.90726      8177.6947     -9944.4561      64459.112      18412.641      0              1.6076757     -63000.759      22124.858      1.5275294    
    649000   649000         296.53403      296.53403      80561.353      80490.64       70.71293      -620.93353      8178.4044     -9944.5916      64460.32       18415.833      0              1.6076757     -62308.247      22124.858      1.5275294    
    649500   649500         321.54767      321.54767      80571.041      80494.363      76.677801     -620.95318      8178.8551     -9944.6013      64465.605      18413.85       0              1.6076757     -63495.265      22124.858      1.5275294    
    650000   650000         333.58957      333.58957      80581.194      80501.645      79.549373     -622.86389      8178.9853     -9944.8065      64463.142      18425.58       0              1.6076757     -62376.087      22124.858      1.5275294    
    650500   650500         279.52654      279.52654      80564.246      80497.589      66.657241     -621.80758      8180.3025     -9944.7639      64462.216      18420.035      0              1.6076757     -63184.588      22124.858      1.5275294    
    651000   651000         269.46443      269.46443      80556.062      80491.804      64.257783     -619.18102      8175.2868     -9944.4267      64459.273      18419.244      0              1.6076757     -62812.278      22124.858      1.5275294    
    651500   651500         301.92159      301.92159      80561.978      80489.98       71.997672     -622.46625      8181.093      -9944.6638      64461.464      18412.946      0              1.6076757     -62968.443      22124.858      1.5275294    
    652000   652000         344.4112       344.4112       80574.346      80492.216      82.12995      -621.04698      8177.8574     -9944.7808      64465.795      18412.784      0              1.6076757     -62538.741      22124.858      1.5275294    
    652500   652500         352.23378      352.23378      80569.684      80485.689      83.995359     -621.51394      8180.3955     -9944.922       64464.339      18405.782      0              1.6076757     -62649.519      22124.858      1.5275294    
    653000   653000         316.51189      316.51189      80565.642      80490.165      75.476945     -621.92959      8178.9086     -9945.3305      64467.644      18409.264      0              1.6076757     -63095.123      22124.858      1.5275294    
    653500   653500         264.78956      264.78956      80542.931      80479.788      63.142992     -622.31929      8180.6719     -9944.2275      64457.823      18406.232      0              1.6076757     -62379.683      22124.858      1.5275294    
    654000   654000         296.60181      296.60181      80553.576      80482.847      70.729092     -621.98042      8177.1502     -9944.9002      64457.354      18413.616      0              1.6076757     -63153.309      22124.858      1.5275294    
    654500   654500         311.8826       311.8826       80562.35       80487.977      74.373023     -622.58737      8183.8376     -9944.6443      64456.959      18412.804      0              1.6076757     -62480.681      22124.858      1.5275294    
    655000   655000         306.08547      306.08547      80556.392      80483.402      72.990611     -620.86139      8175.9849     -9944.6483      64455.562      18415.757      0              1.6076757     -63304.042      22124.858      1.5275294    
    655500   655500         296.14545      296.14545      80545.877      80475.257      70.620268     -623.9168       8183.676      -9944.8384      64451.24       18407.488      0              1.6076757     -62212.15       22124.858      1.5275294    
    656000   656000         311.64612      311.64612      80551.838      80477.521      74.31663      -622.67647      8179.3448     -9945.1404      64453.959      18410.427      0              1.6076757     -63457.769      22124.858      1.5275294    
    656500   656500         285.04916      285.04916      80558.852      80490.878      67.974191     -622.16702      8181.4078     -9945.0213      64462.544      18412.506      0              1.6076757     -62093.823      22124.858      1.5275294    
    657000   657000         254.85089      254.85089      80566.886      80506.113      60.772967     -620.83363      8175.9456     -9944.8545      64470.718      18423.53       0              1.6076757     -63808.689      22124.858      1.5275294    
    657500   657500         228.4892       228.4892       80555.823      80501.336      54.486632     -621.32258      8181.2918     -9945.2333      64463.573      18421.42       0              1.6076757     -62140.066      22124.858      1.5275294    
    658000   658000         268.03843      268.03843      80558.675      80494.757      63.917733     -623.13308      8178.5149     -9944.4458      64462.785      18419.428      0              1.6076757     -63701.913      22124.858      1.5275294    
    658500   658500         275.34942      275.34942      80561.001      80495.339      65.661145     -623.09415      8182.1678     -9945.2523      64462.32       18417.59       0              1.6076757     -62639.267      22124.858      1.5275294    
    659000   659000         310.59419      310.59419      80577.513      80503.447      74.065783     -620.13417      8177.4641     -9944.4464      64465.928      18423.028      0              1.6076757     -62575.53       22124.858      1.5275294    
    659500   659500         303.80266      303.80266      80557.255      80484.809      72.446241     -623.4204       8181.356      -9945.1593      64455.828      18414.597      0              1.6076757     -63556.808      22124.858      1.5275294    
    660000   660000         295.70489      295.70489      80552.208      80481.693      70.515208     -622.61461      8180.4644     -9944.6952      64451.544      18415.387      0              1.6076757     -62281.147      22124.858      1.5275294    
    660500   660500         302.33843      302.33843      80551.526      80479.429      72.097075     -623.05462      8180.0463     -9945.3972      64454.29       18411.936      0              1.6076757     -63240.331      22124.858      1.5275294    
    661000   661000         323.15062      323.15062      80560.378      80483.318      77.060049     -623.02773      8183.1031     -9945.2628      64454.651      18412.246      0              1.6076757     -62536.436      22124.858      1.5275294    
    661500   661500         295.54954      295.54954      80551.904      80481.426      70.478163     -621.90291      8177.5644     -9945.3556      64454.626      18414.887      0              1.6076757     -63241.457      22124.858      1.5275294    
    662000   662000         249.81647      249.81647      80548.515      80488.943      59.572436     -623.04469      8182.2418     -9945.007       64460.659      18412.486      0              1.6076757     -62384.59       22124.858      1.5275294    
    662500   662500         265.8712       265.8712       80564.201      80500.801      63.400923     -622.81622      8177.8514     -9944.6909      64472.737      18416.112      0              1.6076757     -63516.738      22124.858      1.5275294    
    663000   663000         277.08695      277.08695      80553.775      80487.699      66.075484     -621.2956       8181.24       -9944.8861      64461.702      18409.332      0              1.6076757     -62344.082      22124.858      1.5275294    
    663500   663500         301.57323      301.57323      80554.806      80482.891      71.914602     -623.0047       8177.4207     -9944.5231      64459.802      18411.588      0              1.6076757     -63040.508      22124.858      1.5275294    
    664000   664000         335.71807      335.71807      80574.504      80494.447      80.056945     -622.99982      8181.7196     -9944.9405      64469.869      18409.19       0              1.6076757     -62812.51       22124.858      1.5275294    
    664500   664500         347.0974       347.0974       80574.281      80491.51       82.770513     -620.70149      8178.3481     -9945.0728      64466.356      18410.973      0              1.6076757     -62478.535      22124.858      1.5275294    
    665000   665000         323.17328      323.17328      80552.158      80475.093      77.065453     -621.46978      8179.1672     -9945.0252      64453.824      18406.989      0              1.6076757     -63091.939      22124.858      1.5275294    
    665500   665500         302.71948      302.71948      80555.237      80483.049      72.187941     -622.52985      8180.1562     -9944.8866      64456.254      18412.448      0              1.6076757     -62373.961      22124.858      1.5275294    
    666000   666000         343.14706      343.14706      80580.78       80498.952      81.828497     -621.61402      8179.5925     -9945.0119      64464.287      18420.091      0              1.6076757     -63470.513      22124.858      1.5275294    
    666500   666500         349.16011      349.16011      80578.775      80495.513      83.262397     -622.29867      8180.6001     -9944.9146      64455.879      18424.64       0              1.6076757     -62253.919      22124.858      1.5275294    
    667000   667000         311.52526      311.52526      80557.192      80482.904      74.287811     -620.46632      8176.9181     -9944.728       64453.14       18416.433      0              1.6076757     -63311.617      22124.858      1.5275294    
    667500   667500         298.5266       298.5266       80558.6        80487.412      71.188087     -621.33663      8178.7991     -9944.9296      64454.883      18418.388      0              1.6076757     -62797.251      22124.858      1.5275294    
    668000   668000         275.08853      275.08853      80566.237      80500.638      65.598931     -621.20795      8178.092      -9944.4574      64466.922      18419.681      0              1.6076757     -62602.072      22124.858      1.5275294    
    668500   668500         264.51924      264.51924      80555.077      80491.999      63.078528     -622.31493      8179.4531     -9944.4256      64463.05       18414.629      0              1.6076757     -63229.81       22124.858      1.5275294    
    669000   669000         256.97703      256.97703      80548.484      80487.204      61.279978     -621.78905      8177.6672     -9944.5735      64459.62       18414.672      0              1.6076757     -62681.64       22124.858      1.5275294    
    669500   669500         273.31263      273.31263      80554.542      80489.367      65.175442     -621.15104      8179.1451     -9944.1811      64460.534      18413.412      0              1.6076757     -63018.156      22124.858      1.5275294    
    670000   670000         308.58275      308.58275      80563.663      80490.077      73.586126     -620.75963      8175.9247     -9944.2859      64458.126      18419.464      0              1.6076757     -62411.97       22124.858      1.5275294    
    670500   670500         310.76018      310.76018      80561.91       80487.805      74.105366     -622.15446      8179.2558     -9944.3318      64461.401      18412.026      0              1.6076757     -63437.04       22124.858      1.5275294    
    671000   671000         289.37287      289.37287      80549.683      80480.677      69.005245     -620.45531      8175.5414     -9943.8899      64455.166      18412.707      0              1.6076757     -62244.116      22124.858      1.5275294    
    671500   671500         303.80146      303.80146      80554.321      80481.875      72.445956     -622.15246      8180.438      -9944.3597      64458.427      18407.915      0              1.6076757     -63013.243      22124.858      1.5275294    
    672000   672000         357.42229      357.42229      80578.613      80493.38       85.232637     -620.45172      8174.7081     -9944.1739      64468.388      18413.301      0              1.6076757     -62703.709      22124.858      1.5275294    
    672500   672500         374.43282      374.43282      80576.283      80486.994      89.289049     -619.60753      8177.1571     -9944.3854      64458.246      18413.977      0              1.6076757     -62760.181      22124.858      1.5275294    
    673000   673000         358.29679      358.29679      80568.901      80483.459      85.441174     -621.70833      8176.5293     -9944.3065      64454.603      18416.734      0              1.6076757     -62547.388      22124.858      1.5275294    
    673500   673500         339.51238      339.51238      80561.043      80480.081      80.961753     -621.79035      8178.8636     -9944.1816      64458.948      18406.634      0              1.6076757     -62991.77       22124.858      1.5275294    
    674000   674000         345.20371      345.20371      80560.404      80478.085      82.318935     -619.94059      8174.8477     -9944.182       64455.577      18410.175      0              1.6076757     -62632.164      22124.858      1.5275294    
    674500   674500         341.73817      341.73817      80565.514      80484.021      81.492526     -620.45326      8178.1447     -9943.9053      64456.675      18411.953      0              1.6076757     -62407.28       22124.858      1.5275294    
    675000   675000         334.36372      334.36372      80566.415      80486.681      79.733979     -620.09299      8175.3527     -9944.4924      64458.971      18415.336      0              1.6076757     -63491.271      22124.858      1.5275294    
    675500   675500         284.23282      284.23282      80554.21       80486.431      67.779523     -620.494        8178.4132     -9944.4104      64458.911      18412.403      0              1.6076757     -61970.453      22124.858      1.5275294    
    676000   676000         290.62574      290.62574      80565.508      80496.204      69.30401      -621.03802      8175.3349     -9943.8556      64470.226      18413.929      0              1.6076757     -63398.443      22124.858      1.5275294    
    676500   676500         296.80655      296.80655      80572.93       80502.153      70.777916     -621.03482      8179.7086     -9944.4526      64471.015      18415.309      0              1.6076757     -62674.43       22124.858      1.5275294    
    677000   677000         305.57239      305.57239      80572.239      80499.37       72.86826      -619.94369      8173.8432     -9943.7143      64466.221      18421.357      0              1.6076757     -62750.445      22124.858      1.5275294    
    677500   677500         281.39636      281.39636      80560.396      80493.292      67.103127     -619.93982      8176.4549     -9944.0077      64465.689      18413.488      0              1.6076757     -62944.404      22124.858      1.5275294    
    678000   678000         279.33257      279.33257      80561.586      80494.975      66.610988     -620.17342      8177.2718     -9944.065       64468.556      18411.778      0              1.6076757     -62558.749      22124.858      1.5275294    
    678500   678500         341.5774       341.5774       80571.432      80489.978      81.454188     -621.41204      8175.2924     -9943.8512      64463.974      18414.367      0              1.6076757     -63093.605      22124.858      1.5275294    
    679000   679000         366.75268      366.75268      80568.091      80480.633      87.457606     -620.64793      8178.2666     -9944.4174      64455.433      18410.391      0              1.6076757     -62261.353      22124.858      1.5275294    
    679500   679500         346.09731      346.09731      80559.014      80476.482      82.532027     -619.43175      8173.9431     -9944.1011      64453.442      18411.022      0              1.6076757     -63013.074      22124.858      1.5275294    
    680000   680000         309.32208      309.32208      80556.269      80482.506      73.762429     -620.57904      8178.5054     -9944.2851      64457.995      18409.262      0              1.6076757     -62558.222      22124.858      1.5275294    
    680500   680500         319.29164      319.29164      80566.706      80490.566      76.139818     -620.68574      8175.0325     -9944.016       64463.621      18415.007      0              1.6076757     -62933.388      22124.858      1.5275294    
    681000   681000         307.98387      307.98387      80570.4        80496.957      73.443312     -621.92008      8180.3922     -9944.2962      64466.329      18414.845      0              1.6076757     -62661.075      22124.858      1.5275294    
    681500   681500         280.87999      280.87999      80565.873      80498.894      66.979993     -618.26952      8172.0282     -9944.0154      64468.051      18419.491      0              1.6076757     -63014.744      22124.858      1.5275294    
    682000   682000         243.06274      243.06274      80552.886      80494.924      57.96191      -619.10743      8177.9744     -9944.3668      64463.053      18415.763      0              1.6076757     -62633.131      22124.858      1.5275294    
    682500   682500         248.38472      248.38472      80554.393      80495.162      59.231013     -621.65984      8176.1788     -9944.6426      64461.392      18422.286      0              1.6076757     -63266.003      22124.858      1.5275294    
    683000   683000         314.46689      314.46689      80582.954      80507.965      74.989284     -621.32726      8181.1633     -9944.0625      64468.962      18421.621      0              1.6076757     -62532.263      22124.858      1.5275294    
    683500   683500         295.77133      295.77133      80572.391      80501.86       70.531051     -620.86111      8175.0372     -9944.4544      64468.566      18421.964      0              1.6076757     -63249.163      22124.858      1.5275294    
    684000   684000         289.55613      289.55613      80561.239      80492.19       69.048945     -618.1648       8176.4311     -9944.2677      64462.345      18414.239      0              1.6076757     -62430.389      22124.858      1.5275294    
    684500   684500         307.83689      307.83689      80552.376      80478.968      73.408264     -619.87884      8175.8293     -9944.6207      64456.796      18409.235      0              1.6076757     -62938.444      22124.858      1.5275294    
    685000   685000         284.62645      284.62645      80549.361      80481.488      67.87339      -622.70818      8179.7061     -9945.0976      64456.686      18411.293      0              1.6076757     -62930.484      22124.858      1.5275294    
    685500   685500         229.90019      229.90019      80547.537      80492.714      54.823103     -620.91173      8179.0634     -9944.2192      64463.367      18413.806      0              1.6076757     -62623.415      22124.858      1.5275294    
    686000   686000         244.86492      244.86492      80561.484      80503.092      58.391664     -623.70328      8180.3163     -9944.9728      64469.971      18419.874      0              1.6076757     -63180.391      22124.858      1.5275294    
    686500   686500         266.52346      266.52346      80566.47       80502.913      63.556465     -619.78419      8177.5895     -9944.9319      64465.897      18422.535      0              1.6076757     -63050.444      22124.858      1.5275294    
    687000   687000         249.80781      249.80781      80552.508      80492.937      59.57037      -620.818        8177.8105     -9944.3753      64457.519      18421.193      0              1.6076757     -62605.739      22124.858      1.5275294    
    687500   687500         258.19692      258.19692      80555.23       80493.659      61.570879     -622.51901      8178.6537     -9945.2936      64459.653      18421.558      0              1.6076757     -63414.872      22124.858      1.5275294    
    688000   688000         256.83672      256.83672      80563.289      80502.042      61.246519     -622.32587      8181.7917     -9944.2032      64464.352      18420.82       0              1.6076757     -62688.523      22124.858      1.5275294    
    688500   688500         273.68402      273.68402      80563.272      80498.008      65.264006     -621.98086      8177.1435     -9944.8394      64464.964      18421.114      0              1.6076757     -63126.719      22124.858      1.5275294    
    689000   689000         274.39479      274.39479      80551.172      80485.738      65.4335       -621.13457      8179.7223     -9944.6726      64456.005      18414.211      0              1.6076757     -62714.092      22124.858      1.5275294    
    689500   689500         287.21405      287.21405      80558.339      80489.849      68.490442     -622.50337      8178.8798     -9945.4857      64463.001      18414.349      0              1.6076757     -62841.681      22124.858      1.5275294    
    690000   690000         301.701        301.701        80570.347      80498.402      71.945069     -622.54737      8181.6537     -9945.1033      64472.289      18410.502      0              1.6076757     -63254.506      22124.858      1.5275294    
    690500   690500         303.32543      303.32543      80571.763      80499.43       72.33244      -623.5147       8181.1849     -9945.1747      64471.019      18414.308      0              1.6076757     -62042.21       22124.858      1.5275294    
    691000   691000         304.65593      304.65593      80568.319      80495.669      72.649716     -621.25268      8179.153      -9945.056       64469.109      18412.108      0              1.6076757     -63669.324      22124.858      1.5275294    
    691500   691500         284.9085       284.9085       80559.827      80491.886      67.940649     -622.94256      8181.6138     -9945.3507      64461.695      18415.263      0              1.6076757     -62497.154      22124.858      1.5275294    
    692000   692000         307.20198      307.20198      80567.874      80494.618      73.256861     -623.30741      8181.3392     -9945.172       64459.174      18420.976      0              1.6076757     -62631.366      22124.858      1.5275294    
    692500   692500         288.05256      288.05256      80573.747      80505.056      68.690398     -623.71876      8183.8612     -9945.6486      64467.102      18421.852      0              1.6076757     -63876.427      22124.858      1.5275294    
    693000   693000         290.96376      290.96376      80575.225      80505.841      69.384615     -621.85556      8179.3728     -9945.2218      64462.232      18429.706      0              1.6076757     -62111.696      22124.858      1.5275294    
    693500   693500         282.26071      282.26071      80561.341      80494.032      67.309245     -622.27059      8180.9435     -9945.1722      64458.675      18420.249      0              1.6076757     -63505.567      22124.858      1.5275294    
    694000   694000         277.92182      277.92182      80559.104      80492.83       66.274572     -624.98505      8182.0277     -9945.0049      64457.242      18421.942      0              1.6076757     -62867.322      22124.858      1.5275294    
    694500   694500         315.74056      315.74056      80566.945      80491.652      75.293011     -621.52885      8180.2914     -9944.7413      64456.179      18419.844      0              1.6076757     -62805.969      22124.858      1.5275294    
    695000   695000         349.93857      349.93857      80578.453      80495.005      83.448033     -623.15878      8180.9092     -9945.4057      64461.585      18419.468      0              1.6076757     -63089.289      22124.858      1.5275294    
    695500   695500         268.841        268.841        80556.27       80492.161      64.109117     -619.90415      8179.0949     -9945.6912      64464.591      18412.462      0              1.6076757     -62528.3        22124.858      1.5275294    
    696000   696000         255.64008      255.64008      80551.845      80490.884      60.961162     -622.78221      8181.2173     -9945.3617      64469.243      18406.96       0              1.6076757     -63255.899      22124.858      1.5275294    
    696500   696500         284.57877      284.57877      80557.417      80489.555      67.86202      -623.28555      8182.2887     -9945.0948      64464.817      18409.222      0              1.6076757     -62302.497      22124.858      1.5275294    
    697000   697000         341.72302      341.72302      80564.824      80483.335      81.488912     -621.26192      8178.3243     -9944.6331      64459.288      18410.009      0              1.6076757     -63139.845      22124.858      1.5275294    
    697500   697500         338.79918      338.79918      80567.943      80487.152      80.79168      -620.03059      8180.3989     -9945.1473      64458.753      18411.57       0              1.6076757     -62634.476      22124.858      1.5275294    
    698000   698000         313.40312      313.40312      80560.434      80485.699      74.735614     -620.24166      8177.3        -9944.8648      64457.942      18413.955      0              1.6076757     -62527.215      22124.858      1.5275294    
    698500   698500         268.64903      268.64903      80552.676      80488.612      64.063338     -621.59501      8178.9603     -9944.8829      64458.231      18416.291      0              1.6076757     -63607.004      22124.858      1.5275294    
    699000   699000         240.48695      240.48695      80553.166      80495.818      57.347674     -624.201        8183.0732     -9945.2004      64455.939      18424.6        0              1.6076757     -61999.793      22124.858      1.5275294    
    699500   699500         287.0545       287.0545       80587.296      80518.844      68.452395     -622.17562      8180.2626     -9945.4439      64474.977      18429.616      0              1.6076757     -64273.574      22124.858      1.5275294    
    700000   700000         252.58498      252.58498      80561.498      80501.266      60.232628     -621.53837      8180.1965     -9944.4324      64465.664      18419.768      0              1.6076757     -62246.133      22124.858      1.5275294    
    700500   700500         256.44481      256.44481      80557.754      80496.601      61.153061     -620.38564      8178.901      -9945.3738      64464.181      18417.67       0              1.6076757     -63343.065      22124.858      1.5275294    
    701000   701000         296.30444      296.30444      80552.234      80481.576      70.658181     -622.65036      8179.7705     -9944.6242      64451.883      18415.589      0              1.6076757     -62532.975      22124.858      1.5275294    
    701500   701500         286.79793      286.79793      80556.678      80488.287      68.391213     -623.45287      8183.0098     -9945.3446      64452.829      18419.638      0              1.6076757     -63041.919      22124.858      1.5275294    
    702000   702000         280.24144      280.24144      80566.217      80499.389      66.827721     -622.11536      8177.7872     -9944.9373      64461.528      18425.519      0              1.6076757     -63492.289      22124.858      1.5275294    
    702500   702500         305.1335       305.1335       80569.817      80497.054      72.763601     -622.18341      8184.1316     -9944.654       64456.689      18421.463      0              1.6076757     -61785.635      22124.858      1.5275294    
    703000   703000         323.597        323.597        80577.726      80500.56       77.166496     -620.2271       8174.8061     -9945.5218      64466.884      18423.011      0              1.6076757     -64371.741      22124.858      1.5275294    
    703500   703500         297.19646      297.19646      80572.478      80501.607      70.870896     -622.52396      8182.8613     -9944.5915      64462.82       18421.434      0              1.6076757     -61547.682      22124.858      1.5275294    
    704000   704000         274.01479      274.01479      80555.82       80490.477      65.342884     -623.8281       8181.2317     -9945.3914      64459.411      18417.446      0              1.6076757     -63872.969      22124.858      1.5275294    
    704500   704500         249.99521      249.99521      80554.57       80494.955      59.615058     -622.12318      8181.4299     -9944.4993      64461.539      18417.001      0              1.6076757     -62262.959      22124.858      1.5275294    
    705000   705000         281.2915       281.2915       80583.205      80516.127      67.078123     -620.81317      8178.2218     -9945.1657      64479.855      18422.421      0              1.6076757     -63507.426      22124.858      1.5275294    
    705500   705500         271.69404      271.69404      80573.679      80508.89       64.789465     -621.20062      8178.6125     -9944.825       64477.88       18416.815      0              1.6076757     -62469.158      22124.858      1.5275294    
    706000   706000         274.03301      274.03301      80564.652      80499.304      65.347228     -622.63714      8181.1472     -9945.2587      64468.732      18415.713      0              1.6076757     -63206.357      22124.858      1.5275294    
    706500   706500         273.32616      273.32616      80552.783      80487.604      65.17867      -623.83487      8180.9103     -9945.2654      64462.207      18411.979      0              1.6076757     -62541.829      22124.858      1.5275294    
    707000   707000         298.89546      298.89546      80562.482      80491.206      71.276047     -620.64985      8178.0422     -9944.7798      64462.614      18414.372      0              1.6076757     -63331.477      22124.858      1.5275294    
    707500   707500         315.47039      315.47039      80567.905      80492.677      75.228585     -622.79473      8179.8564     -9945.2037      64460.603      18418.608      0              1.6076757     -62266.68       22124.858      1.5275294    
    708000   708000         319.40909      319.40909      80559.332      80483.164      76.167826     -620.94412      8179.818      -9945.1174      64453.846      18413.954      0              1.6076757     -63208.337      22124.858      1.5275294    
    708500   708500         297.98489      297.98489      80551.716      80480.657      71.058908     -621.80769      8178.2692     -9944.9283      64451.695      18415.821      0              1.6076757     -62922.27       22124.858      1.5275294    
    709000   709000         262.35668      262.35668      80540.482      80477.919      62.562834     -623.01687      8181.0209     -9945.5263      64450.887      18412.947      0              1.6076757     -62310.56       22124.858      1.5275294    
    709500   709500         316.93426      316.93426      80568.172      80492.594      75.577666     -620.87921      8177.0787     -9945.0912      64462.194      18417.684      0              1.6076757     -63950.645      22124.858      1.5275294    
    710000   710000         307.83824      307.83824      80570.473      80497.064      73.408586     -624.72333      8185.4358     -9945.2285      64461.959      18418.014      0              1.6076757     -61743.539      22124.858      1.5275294    
    710500   710500         262.48049      262.48049      80536.306      80473.714      62.592359     -620.07725      8173.9739     -9944.8447      64449.666      18413.388      0              1.6076757     -63664.488      22124.858      1.5275294    
    711000   711000         326.45477      326.45477      80566.541      80488.693      77.847974     -622.10105      8181.1647     -9944.9501      64458.021      18414.951      0              1.6076757     -62204.214      22124.858      1.5275294    
    711500   711500         300.60483      300.60483      80569.675      80497.991      71.683672     -622.1761       8177.6385     -9944.6931      64466.174      18419.441      0              1.6076757     -63440.686      22124.858      1.5275294    
    712000   712000         281.0492       281.0492       80574.218      80507.198      67.020342     -622.32851      8181.539      -9945.1213      64473.839      18417.662      0              1.6076757     -62304.889      22124.858      1.5275294    
    712500   712500         258.47999      258.47999      80560.811      80499.173      61.638379     -621.70992      8177.3203     -9945.0719      64470.291      18416.736      0              1.6076757     -63485.819      22124.858      1.5275294    
    713000   713000         251.75358      251.75358      80562.693      80502.658      60.034369     -621.96646      8181.893      -9945.2841      64471.179      18415.23       0              1.6076757     -62516.396      22124.858      1.5275294    
    713500   713500         259.60422      259.60422      80563.097      80501.19       61.906468     -621.91716      8177.9119     -9945.1166      64469.11       18419.594      0              1.6076757     -63108.914      22124.858      1.5275294    
    714000   714000         247.86929      247.86929      80555.118      80496.009      59.108101     -623.68588      8182.7599     -9944.9938      64465.343      18414.979      0              1.6076757     -62992.939      22124.858      1.5275294    
    714500   714500         231.73328      231.73328      80548.902      80493.642      55.260231     -623.47279      8178.9566     -9945.1891      64461.281      18420.458      0              1.6076757     -62756.579      22124.858      1.5275294    
    715000   715000         226.73676      226.73676      80541.099      80487.03       54.068737     -621.81864      8182.07       -9945.1724      64458.85       18411.494      0              1.6076757     -63275.013      22124.858      1.5275294    
    715500   715500         290.00355      290.00355      80565.258      80496.102      69.155639     -621.38208      8177.6289     -9945.2513      64458.859      18424.64       0              1.6076757     -62606.237      22124.858      1.5275294    
    716000   716000         337.30916      337.30916      80565.053      80484.617      80.436362     -622.95905      8182.6841     -9944.7028      64454.749      18413.237      0              1.6076757     -62906.102      22124.858      1.5275294    
    716500   716500         329.53545      329.53545      80555.366      80476.784      78.582606     -621.18904      8176.7635     -9945.3711      64451.618      18413.355      0              1.6076757     -63119.173      22124.858      1.5275294    
    717000   717000         308.29687      308.29687      80552.53       80479.012      73.517954     -621.83754      8180.2282     -9944.6303      64453.275      18410.369      0              1.6076757     -61990.583      22124.858      1.5275294    
    717500   717500         321.92567      321.92567      80562.561      80485.793      76.767943     -621.53733      8179.1363     -9945.6546      64461.239      18411.002      0              1.6076757     -63889.725      22124.858      1.5275294    
    718000   718000         287.22166      287.22166      80568.364      80499.872      68.492258     -622.6418       8180.645      -9944.79        64468.415      18416.636      0              1.6076757     -61835.003      22124.858      1.5275294    
    718500   718500         284.75391      284.75391      80560.68       80492.776      67.903786     -624.02828      8183.6065     -9945.8906      64466.043      18411.438      0              1.6076757     -63496.402      22124.858      1.5275294    
    719000   719000         284.1838       284.1838       80553.764      80485.997      67.767833     -622.47884      8178.3821     -9945.115       64457.021      18416.58       0              1.6076757     -62884.937      22124.858      1.5275294    
    719500   719500         313.09426      313.09426      80564.265      80489.603      74.661961     -624.70659      8185.0621     -9945.143       64455.635      18417.147      0              1.6076757     -62316.525      22124.858      1.5275294    
    720000   720000         317.05194      317.05194      80564.3        80488.694      75.605729     -622.65111      8178.7798     -9945.4229      64456.847      18419.534      0              1.6076757     -64009.783      22124.858      1.5275294    
    720500   720500         287.29487      287.29487      80555.502      80486.993      68.509714     -621.92937      8183.0638     -9945.1752      64452.661      18416.765      0              1.6076757     -61528.573      22124.858      1.5275294    
    721000   721000         263.88516      263.88516      80551.622      80488.695      62.927322     -622.43379      8177.3685     -9945.4675      64458.319      18419.3        0              1.6076757     -64360.528      22124.858      1.5275294    
    721500   721500         299.72111      299.72111      80573.085      80501.612      71.472936     -623.38628      8185.9462     -9945.2209      64460.067      18422.599      0              1.6076757     -61685.204      22124.858      1.5275294    
    722000   722000         336.77775      336.77775      80577.307      80496.997      80.30964      -622.29713      8178.4672     -9944.7875      64462.667      18421.34       0              1.6076757     -63856.033      22124.858      1.5275294    
    722500   722500         271.43208      271.43208      80546.198      80481.471      64.726998     -622.26212      8181.3855     -9945.3117      64455.249      18410.803      0              1.6076757     -62371.969      22124.858      1.5275294    
    723000   723000         310.19572      310.19572      80565.398      80491.428      73.970761     -622.00143      8178.3793     -9945.0105      64464.96       18413.493      0              1.6076757     -62891.745      22124.858      1.5275294    
    723500   723500         311.73721      311.73721      80562.654      80488.316      74.338353     -622.32582      8182.6384     -9945.2477      64463.876      18407.767      0              1.6076757     -63090.833      22124.858      1.5275294    
    724000   724000         285.75196      285.75196      80554.63       80486.488      68.141785     -621.30994      8178.2971     -9945.0826      64459.943      18413.033      0              1.6076757     -62188.653      22124.858      1.5275294    
    724500   724500         294.13614      294.13614      80550.921      80480.78       70.141117     -622.01481      8178.9632     -9944.6626      64455.982      18410.904      0              1.6076757     -63581.241      22124.858      1.5275294    
    725000   725000         285.81793      285.81793      80553.719      80485.562      68.157516     -622.82597      8179.9577     -9945.3127      64456.282      18415.853      0              1.6076757     -62169.224      22124.858      1.5275294    
    725500   725500         300.91374      300.91374      80564.264      80492.507      71.757335     -622.26075      8182.1374     -9944.4739      64461.889      18413.607      0              1.6076757     -63269          22124.858      1.5275294    
    726000   726000         314.06423      314.06423      80580.5        80505.607      74.893264     -622.11806      8178.1553     -9945.0855      64469.105      18423.943      0              1.6076757     -62862.152      22124.858      1.5275294    
    726500   726500         305.88761      305.88761      80574.969      80502.025      72.943428     -622.6211       8182.5531     -9945.1363      64462.327      18423.295      0              1.6076757     -62846.163      22124.858      1.5275294    
    727000   727000         279.86174      279.86174      80557.3        80490.563      66.737174     -622.89977      8179.2522     -9944.7774      64456.761      18420.62       0              1.6076757     -63050.222      22124.858      1.5275294    
    727500   727500         321.21168      321.21168      80574.11       80497.513      76.597681     -622.58677      8182.9688     -9945.2083      64460.11       18420.621      0              1.6076757     -62873.338      22124.858      1.5275294    
    728000   728000         316.53375      316.53375      80570.026      80494.544      75.482158     -621.56114      8178.2263     -9944.8727      64463.456      18417.688      0              1.6076757     -62788.029      22124.858      1.5275294    
    728500   728500         260.63022      260.63022      80548.986      80486.835      62.151135     -621.66074      8179.6616     -9945.1537      64457.235      18415.146      0              1.6076757     -63031.585      22124.858      1.5275294    
    729000   729000         266.13027      266.13027      80559.561      80496.098      63.462702     -621.34407      8178.9842     -9945.0504      64463.951      18417.95       0              1.6076757     -62617.537      22124.858      1.5275294    
    729500   729500         274.14701      274.14701      80563.682      80498.308      65.374414     -622.79638      8180.7223     -9944.9699      64462.184      18421.56       0              1.6076757     -63397.145      22124.858      1.5275294    
    730000   730000         248.11436      248.11436      80550.691      80491.524      59.166543     -621.82045      8179.6159     -9945.3104      64458.342      18419.09       0              1.6076757     -62352.665      22124.858      1.5275294    
    730500   730500         259.82345      259.82345      80554.646      80492.687      61.958748     -622.91839      8180.4633     -9944.7017      64462.435      18415.802      0              1.6076757     -63560.79       22124.858      1.5275294    
    731000   731000         273.55852      273.55852      80565.247      80500.013      65.234079     -621.99831      8179.5174     -9945.1021      64467.473      18418.515      0              1.6076757     -62389.468      22124.858      1.5275294    
    731500   731500         269.42205      269.42205      80565.293      80501.045      64.247676     -620.5444       8177.5827     -9944.5258      64471.166      18415.76       0              1.6076757     -63109.415      22124.858      1.5275294    
    732000   732000         233.45724      233.45724      80550.412      80494.74       55.671335     -623.99464      8182.19       -9945.6219      64468.209      18412.35       0              1.6076757     -62904.086      22124.858      1.5275294    
    732500   732500         217.6595       217.6595       80550.305      80498.401      51.904131     -621.30189      8177.418      -9944.6407      64470.856      18414.461      0              1.6076757     -62737.852      22124.858      1.5275294    
    733000   733000         250.52557      250.52557      80559.727      80499.986      59.74153      -621.84684      8181.6317     -9945.2966      64471.055      18412.835      0              1.6076757     -63071.102      22124.858      1.5275294    
    733500   733500         310.06349      310.06349      80568.364      80494.425      73.93923      -621.18078      8177.2935     -9944.4746      64460.237      18420.943      0              1.6076757     -62855.608      22124.858      1.5275294    
    734000   734000         321.60341      321.60341      80569.114      80492.423      76.691093     -622.75142      8182.7695     -9945.0937      64454.857      18421.034      0              1.6076757     -62665.138      22124.858      1.5275294    
    734500   734500         299.55688      299.55688      80561.743      80490.309      71.433774     -620.03552      8176.2657     -9945.3824      64458.453      18419.4        0              1.6076757     -63298.623      22124.858      1.5275294    
    735000   735000         282.5545       282.5545       80549.033      80481.654      67.379303     -621.92457      8181.2662     -9945.5114      64451.738      18414.478      0              1.6076757     -62412.16       22124.858      1.5275294    
    735500   735500         294.06344      294.06344      80542.451      80472.328      70.123781     -623.90069      8180.0202     -9945.4201      64449.037      18410.983      0              1.6076757     -63259.217      22124.858      1.5275294    
    736000   736000         348.15103      348.15103      80565.459      80482.437      83.021768     -620.23204      8178.9784     -9944.9452      64450.327      18416.702      0              1.6076757     -62404.934      22124.858      1.5275294    
    736500   736500         319.40535      319.40535      80565.787      80489.62       76.166935     -622.2843       8180.5124     -9944.6935      64458.133      18416.345      0              1.6076757     -63009.87       22124.858      1.5275294    
    737000   737000         269.10218      269.10218      80553.972      80489.801      64.171398     -623.45319      8180.8584     -9945.1826      64461.132      18414.839      0              1.6076757     -62908.175      22124.858      1.5275294    
    737500   737500         263.67542      263.67542      80551.077      80488.2        62.877307     -618.54041      8176.0136     -9944.9382      64457.926      18416.131      0              1.6076757     -62598.661      22124.858      1.5275294    
    738000   738000         271.5479       271.5479       80560.582      80495.827      64.754617     -621.67394      8181.7119     -9945.6963      64465.45       18414.428      0              1.6076757     -63229.304      22124.858      1.5275294    
    738500   738500         263.28575      263.28575      80563.231      80500.447      62.784384     -621.65729      8180.3466     -9945.3249      64467.651      18417.823      0              1.6076757     -62589.195      22124.858      1.5275294    
    739000   739000         253.90319      253.90319      80555.16       80494.613      60.546974     -621.67546      8179.6876     -9945.3707      64464.556      18415.808      0              1.6076757     -63125.781      22124.858      1.5275294    
    739500   739500         285.84424      285.84424      80557.262      80489.098      68.16379      -623.48149      8182.53       -9945.3476      64459.931      18413.858      0              1.6076757     -62832.2        22124.858      1.5275294    
    740000   740000         327.88504      327.88504      80569.597      80491.408      78.189041     -619.31994      8177.0391     -9945.1134      64458.841      18418.353      0              1.6076757     -62830.603      22124.858      1.5275294    
    740500   740500         332.15936      332.15936      80573.396      80494.187      79.208316     -622.62681      8183.2722     -9945.9353      64463.104      18414.766      0              1.6076757     -62657.051      22124.858      1.5275294    
    741000   741000         335.87646      335.87646      80573.407      80493.312      80.094715     -622.1741       8177.4191     -9945.0344      64463.983      18417.511      0              1.6076757     -63371.213      22124.858      1.5275294    
    741500   741500         297.48361      297.48361      80562.196      80491.256      70.939371     -620.7233       8179.814      -9945.0041      64460.388      18415.173      0              1.6076757     -62100.546      22124.858      1.5275294    
    742000   742000         294.85904      294.85904      80555.74       80485.427      70.313503     -622.62467      8180.2111     -9945.4939      64455.704      18416.023      0              1.6076757     -63361.863      22124.858      1.5275294    
    742500   742500         288.49689      288.49689      80553.693      80484.897      68.796354     -621.17089      8179.5954     -9944.9931      64457.67       18412.188      0              1.6076757     -62773.649      22124.858      1.5275294    
    743000   743000         280.64987      280.64987      80554.82       80487.895      66.925117     -620.65129      8176.8681     -9945.2903      64461.785      18413.576      0              1.6076757     -62913.57       22124.858      1.5275294    
    743500   743500         294.33435      294.33435      80565.087      80494.899      70.188383     -623.19404      8184.5171     -9945.2668      64467.457      18409.777      0              1.6076757     -62491.403      22124.858      1.5275294    
    744000   744000         269.97362      269.97362      80549.458      80485.078      64.379206     -621.12123      8177.1113     -9945.7738      64457.756      18415.499      0              1.6076757     -63099.767      22124.858      1.5275294    
    744500   744500         252.63432      252.63432      80548.978      80488.734      60.244394     -621.84257      8182.5965     -9945.1597      64458.697      18412.835      0              1.6076757     -62802.299      22124.858      1.5275294    
    745000   745000         281.55123      281.55123      80567.944      80500.804      67.140059     -622.46991      8179.2724     -9945.1554      64466.278      18421.271      0              1.6076757     -63185.72       22124.858      1.5275294    
    745500   745500         303.92407      303.92407      80565.426      80492.951      72.475195     -620.45436      8179.7172     -9944.5818      64464.793      18411.869      0              1.6076757     -62566.8        22124.858      1.5275294    
    746000   746000         295.52322      295.52322      80548.142      80477.67       70.471888     -619.68789      8177.1013     -9945.0248      64455.69       18407.984      0              1.6076757     -62846.59       22124.858      1.5275294    
    746500   746500         302.09009      302.09009      80547.062      80475.024      72.037855     -623.33523      8181.6981     -9945.0368      64453.74       18406.351      0              1.6076757     -62561.717      22124.858      1.5275294    
    747000   747000         330.12687      330.12687      80554.903      80476.18       78.72364      -622.17309      8179.6761     -9944.9941      64450.98       18411.083      0              1.6076757     -63292.666      22124.858      1.5275294    
    747500   747500         332.2387       332.2387       80568.545      80489.318      79.227235     -622.33141      8183.2676     -9945.8125      64455.75       18416.837      0              1.6076757     -62185.96       22124.858      1.5275294    
    748000   748000         300.24656      300.24656      80562.976      80491.378      71.598238     -619.33013      8177.6487     -9945.298       64457.869      18418.881      0              1.6076757     -63348.958      22124.858      1.5275294    
    748500   748500         238.85458      238.85458      80551.501      80494.543      56.958411     -622.97352      8181.5418     -9945.6033      64459.665      18420.305      0              1.6076757     -63003.459      22124.858      1.5275294    
    749000   749000         216.00992      216.00992      80551.475      80499.964      51.510764     -620.9719       8178.4767     -9945.2115      64461.789      18424.275      0              1.6076757     -62660.861      22124.858      1.5275294    
    749500   749500         221.75164      221.75164      80556.725      80503.845      52.879962     -622.59016      8180.1504     -9945.0081      64467.844      18421.841      0              1.6076757     -63549.257      22124.858      1.5275294    
    750000   750000         236.21619      236.21619      80564.81       80508.481      56.329247     -621.27233      8179.4601     -9945.7865      64468.375      18426.097      0              1.6076757     -62532.54       22124.858      1.5275294    
    750500   750500         262.92682      262.92682      80560.751      80498.052      62.698794     -621.22552      8179.2986     -9945.2075      64464.695      18418.884      0              1.6076757     -63475.506      22124.858      1.5275294    
    751000   751000         303.6177       303.6177       80566.008      80493.606      72.402135     -621.61439      8179.7047     -9945.7528      64459.809      18419.852      0              1.6076757     -62310.836      22124.858      1.5275294    
    751500   751500         332.07446      332.07446      80571.81       80492.622      79.188072     -620.86235      8179.1317     -9944.8717      64466.034      18411.583      0              1.6076757     -63386.809      22124.858      1.5275294    
    752000   752000         334.15674      334.15674      80576.174      80496.49       79.684622     -623.40988      8180.4319     -9945.141       64467.589      18415.412      0              1.6076757     -62248.304      22124.858      1.5275294    
    752500   752500         319.28969      319.28969      80572.863      80496.724      76.139352     -621.50746      8180.2643     -9945.483       64469.551      18412.292      0              1.6076757     -63145.659      22124.858      1.5275294    
    753000   753000         267.41273      267.41273      80554.547      80490.778      63.768525     -620.98642      8179.1428     -9945.5213      64463.072      18413.464      0              1.6076757     -62794.754      22124.858      1.5275294    
    753500   753500         264.84782      264.84782      80555.971      80492.815      63.156884     -623.05589      8182.8442     -9945.3972      64459.779      18417.037      0              1.6076757     -62789.413      22124.858      1.5275294    
    754000   754000         319.38067      319.38067      80572.452      80496.291      76.161049     -621.11722      8179.0248     -9945.3156      64462.399      18419.693      0              1.6076757     -63156.683      22124.858      1.5275294    
    754500   754500         277.93447      277.93447      80555.359      80489.082      66.27759      -622.80071      8181.1046     -9945.174       64456.484      18417.86       0              1.6076757     -62634.528      22124.858      1.5275294    
    755000   755000         290.81065      290.81065      80560.276      80490.928      69.348104     -622.06575      8180.4557     -9944.752       64459.869      18415.814      0              1.6076757     -63013.604      22124.858      1.5275294    
    755500   755500         303.55209      303.55209      80569.615      80497.228      72.386489     -619.83845      8176.3718     -9945.199       64463.36       18420.926      0              1.6076757     -63004.656      22124.858      1.5275294    
    756000   756000         301.24819      301.24819      80571.638      80499.801      71.837091     -621.04478      8180.2694     -9944.9123      64465.921      18417.959      0              1.6076757     -62496.862      22124.858      1.5275294    
    756500   756500         296.28265      296.28265      80566.515      80495.862      70.652985     -621.70334      8177.2693     -9944.896       64470.257      18413.328      0              1.6076757     -63253.012      22124.858      1.5275294    
    757000   757000         265.41923      265.41923      80558.661      80495.367      63.293145     -623.35681      8182.0965     -9945.4229      64466.71       18413.733      0              1.6076757     -62438.109      22124.858      1.5275294    
    757500   757500         265.62315      265.62315      80558.091      80494.749      63.341773     -620.07532      8177.1934     -9944.3246      64465.323      18415.025      0              1.6076757     -63207.309      22124.858      1.5275294    
    758000   758000         317.8184       317.8184       80573.873      80498.085      75.788503     -621.68452      8180.5618     -9945.6757      64459.741      18423.535      0              1.6076757     -62741.648      22124.858      1.5275294    
    758500   758500         321.75883      321.75883      80561.123      80484.395      76.728156     -621.95257      8179.4647     -9944.575       64451.785      18418.065      0              1.6076757     -62807.637      22124.858      1.5275294    
    759000   759000         308.53393      308.53393      80552.797      80479.222      73.574483     -621.26804      8177.803      -9945.0724      64449.932      18416.22       0              1.6076757     -63200.658      22124.858      1.5275294    
    759500   759500         327.06508      327.06508      80558.367      80480.373      77.993511     -621.38056      8178.3758     -9945.0621      64451.1        18415.732      0              1.6076757     -62131.179      22124.858      1.5275294    
    760000   760000         332.13958      332.13958      80563.908      80484.705      79.2036       -621.33349      8178.7123     -9945.1745      64455.978      18414.915      0              1.6076757     -63813.79       22124.858      1.5275294    
    760500   760500         317.82473      317.82473      80563.14       80487.35       75.790013     -621.89129      8178.1672     -9945.16        64458.184      18416.442      0              1.6076757     -61623.731      22124.858      1.5275294    
    761000   761000         293.06996      293.06996      80548.451      80478.564      69.886871     -619.57458      8177.3778     -9944.9945      64456.706      18407.443      0              1.6076757     -63901.181      22124.858      1.5275294    
    761500   761500         265.13347      265.13347      80542.391      80479.166      63.225002     -623.57234      8181.0595     -9944.8652      64454.027      18410.91       0              1.6076757     -61981.461      22124.858      1.5275294    
    762000   762000         289.14508      289.14508      80563.462      80494.511      68.950926     -620.4235       8179.7728     -9944.7537      64464.427      18413.881      0              1.6076757     -63388.285      22124.858      1.5275294    
    762500   762500         267.55902      267.55902      80568.297      80504.494      63.80341      -621.14739      8178.8761     -9944.6888      64470.296      18419.55       0              1.6076757     -62636.944      22124.858      1.5275294    
    763000   763000         257.81798      257.81798      80573.657      80512.176      61.480514     -621.82482      8181.7234     -9945.2552      64472.116      18423.809      0              1.6076757     -63143.246      22124.858      1.5275294    
    763500   763500         265.47337      265.47337      80562.374      80499.068      63.306055     -621.2779       8178.1446     -9944.8705      64466.054      18419.41       0              1.6076757     -62783.811      22124.858      1.5275294    
    764000   764000         282.95462      282.95462      80558.591      80491.117      67.474718     -621.80143      8179.9771     -9945.081       64460.511      18415.904      0              1.6076757     -63155.048      22124.858      1.5275294    
    764500   764500         313.87959      313.87959      80570.045      80495.196      74.849235     -621.23192      8179.0965     -9944.8646      64463.867      18416.721      0              1.6076757     -62337.531      22124.858      1.5275294    
    765000   765000         330.52065      330.52065      80572.291      80493.473      78.817541     -621.98646      8181.6673     -9944.9174      64464.831      18412.271      0              1.6076757     -63433.62       22124.858      1.5275294    
    765500   765500         319.27033      319.27033      80569.359      80493.224      76.134736     -620.71724      8176.3612     -9944.4128      64462.724      18417.661      0              1.6076757     -62268.271      22124.858      1.5275294    
    766000   766000         293.79576      293.79576      80559.056      80488.996      70.059949     -620.79129      8180.8641     -9944.6259      64461.042      18410.899      0              1.6076757     -62974.095      22124.858      1.5275294    
    766500   766500         248.15723      248.15723      80548.802      80489.625      59.176765     -622.95246      8177.8273     -9944.4413      64460.284      18417.3        0              1.6076757     -63148.618      22124.858      1.5275294    
    767000   767000         226.31168      226.31168      80540.352      80486.385      53.967371     -621.26893      8179.6616     -9944.1646      64455.254      18415.295      0              1.6076757     -62530.851      22124.858      1.5275294    
    767500   767500         300.17835      300.17835      80568.153      80496.571      71.581972     -620.67902      8176.2607     -9944.4266      64462.115      18421.694      0              1.6076757     -63256.663      22124.858      1.5275294    
    768000   768000         312.95938      312.95938      80568.279      80493.649      74.629796     -619.83535      8178.8082     -9944.4639      64464.219      18413.314      0              1.6076757     -62607.735      22124.858      1.5275294    
    768500   768500         295.68589      295.68589      80553.927      80483.416      70.510678     -620.83335      8177.0346     -9944.4819      64458.287      18411.802      0              1.6076757     -62880.675      22124.858      1.5275294    
    769000   769000         288.00001      288.00001      80547.936      80479.258      68.677865     -622.32644      8181.8607     -9944.183       64455.434      18406.865      0              1.6076757     -62642.808      22124.858      1.5275294    
    769500   769500         316.84441      316.84441      80558.737      80483.181      75.556239     -621.32656      8176.663      -9944.1451      64456.234      18414.148      0              1.6076757     -63005.725      22124.858      1.5275294    
    770000   770000         306.10596      306.10596      80550.416      80477.421      72.995498     -620.79465      8181.9024     -9944.0044      64450.275      18408.435      0              1.6076757     -62432.66       22124.858      1.5275294    
    770500   770500         315.74428      315.74428      80555.911      80480.617      75.293898     -621.88955      8177.4946     -9945.0128      64453.109      18415.308      0              1.6076757     -63184.596      22124.858      1.5275294    
    771000   771000         315.36758      315.36758      80560.577      80485.373      75.204069     -624.68247      8186.9529     -9945.6274      64454.347      18412.775      0              1.6076757     -62587.938      22124.858      1.5275294    
    771500   771500         364.19703      364.19703      80580.868      80494.02       86.848172     -623.20169      8180.4538     -9944.6154      64461.815      18417.961      0              1.6076757     -63156.257      22124.858      1.5275294    
    772000   772000         304.51329      304.51329      80559.334      80486.719      72.615702     -619.54963      8180.308      -9945.1038      64458.293      18411.163      0              1.6076757     -62421.079      22124.858      1.5275294    
    772500   772500         270.55412      270.55412      80548.628      80484.111      64.517636     -620.79845      8176.7249     -9944.558       64462.386      18408.749      0              1.6076757     -63006.904      22124.858      1.5275294    
    773000   773000         274.06583      274.06583      80555.258      80489.902      65.355054     -621.90452      8182.2076     -9945.2347      64463.597      18409.629      0              1.6076757     -62823.572      22124.858      1.5275294    
    773500   773500         288.14517      288.14517      80565.595      80496.882      68.712481     -619.59851      8177.0491     -9944.2255      64466.49       18415.56       0              1.6076757     -62553.987      22124.858      1.5275294    
    774000   774000         297.02616      297.02616      80566.284      80495.453      70.830285     -624.09253      8183.7689     -9945.3507      64464.384      18415.136      0              1.6076757     -63178.021      22124.858      1.5275294    
    774500   774500         270.01765      270.01765      80556.893      80492.503      64.389705     -623.49377      8182.2815     -9945.1964      64460.675      18416.629      0              1.6076757     -62883.923      22124.858      1.5275294    
    775000   775000         278.24296      278.24296      80554.133      80487.782      66.351154     -621.1851       8179.4174     -9944.4642      64458.567      18413.84       0              1.6076757     -62607.415      22124.858      1.5275294    
    775500   775500         285.42524      285.42524      80550.75       80482.687      68.063873     -621.96504      8179.2182     -9944.3009      64456.252      18411.874      0              1.6076757     -63340.006      22124.858      1.5275294    
    776000   776000         294.9501       294.9501       80561.59       80491.255      70.335217     -623.41753      8180.3124     -9944.446       64459.541      18417.657      0              1.6076757     -62139.1        22124.858      1.5275294    
    776500   776500         324.22066      324.22066      80573.132      80495.816      77.315216     -619.78484      8178.6584     -9944.8013      64466.93       18413.206      0              1.6076757     -63703.946      22124.858      1.5275294    
    777000   777000         302.25811      302.25811      80564.249      80492.172      72.07792      -621.27798      8178.0561     -9944.6161      64460.087      18418.315      0              1.6076757     -61863.137      22124.858      1.5275294    
    777500   777500         270.83432      270.83432      80557.762      80493.177      64.584452     -622.62946      8182.0993     -9944.929       64465.338      18411.691      0              1.6076757     -63667.67       22124.858      1.5275294    
    778000   778000         276.76453      276.76453      80550.555      80484.556      65.9986       -620.15234      8174.4975     -9944.4652      64455.758      18417.31       0              1.6076757     -62717.397      22124.858      1.5275294    
    778500   778500         296.63063      296.63063      80560.215      80489.479      70.735965     -623.37287      8183.7331     -9944.7673      64457.976      18414.302      0              1.6076757     -62462.218      22124.858      1.5275294    
    779000   779000         323.20401      323.20401      80566.287      80489.214      77.07278      -619.55648      8175.3971     -9944.6249      64458.411      18417.98       0              1.6076757     -63247.647      22124.858      1.5275294    
    779500   779500         310.27142      310.27142      80565.971      80491.983      73.988814     -622.69866      8183.0651     -9944.8336      64461.105      18413.737      0              1.6076757     -62538.096      22124.858      1.5275294    
    780000   780000         288.41875      288.41875      80556.819      80488.041      68.77772      -621.42387      8176.3948     -9944.4303      64458.433      18417.459      0              1.6076757     -63116.91       22124.858      1.5275294    
    780500   780500         270.55359      270.55359      80556.327      80491.809      64.517509     -621.57344      8181.2276     -9944.8676      64463.435      18411.98       0              1.6076757     -62562.043      22124.858      1.5275294    
    781000   781000         256.4524       256.4524       80551.31       80490.155      61.15487      -620.37385      8175.273      -9944.0735      64463.915      18413.807      0              1.6076757     -63084.475      22124.858      1.5275294    
    781500   781500         248.72512      248.72512      80547.79       80488.478      59.312188     -621.73719      8181.5543     -9945.3844      64462.084      18410.353      0              1.6076757     -62684.05       22124.858      1.5275294    
    782000   782000         290.02497      290.02497      80561.54       80492.379      69.160747     -619.0016       8175.3497     -9944.346       64464.166      18414.604      0              1.6076757     -62957.371      22124.858      1.5275294    
    782500   782500         295.8214       295.8214       80557.428      80486.885      70.542993     -621.82204      8180.0488     -9944.8162      64461.541      18410.327      0              1.6076757     -62487.021      22124.858      1.5275294    
    783000   783000         326.07299      326.07299      80557.172      80479.415      77.756931     -619.14609      8176.247      -9943.8469      64455.282      18409.271      0              1.6076757     -63410.984      22124.858      1.5275294    
    783500   783500         334.10052      334.10052      80567.932      80488.261      79.671215     -622.97411      8178.8472     -9944.6197      64456.187      18419.212      0              1.6076757     -61610.638      22124.858      1.5275294    
    784000   784000         342.70402      342.70402      80570.019      80488.296      81.722846     -619.76535      8178.9076     -9944.488       64461.058      18410.976      0              1.6076757     -64165.054      22124.858      1.5275294    
    784500   784500         337.57754      337.57754      80557.662      80477.162      80.500362     -621.47881      8175.8195     -9944.3234      64445.651      18419.886      0              1.6076757     -61800.789      22124.858      1.5275294    
    785000   785000         344.19551      344.19551      80561.916      80479.837      82.078514     -622.66979      8183.7112     -9944.6342      64448.595      18413.228      0              1.6076757     -63184.778      22124.858      1.5275294    
    785500   785500         366.01944      366.01944      80573.027      80485.745      87.282754     -620.2138       8174.5887     -9943.7206      64453.583      18419.9        0              1.6076757     -62911.98       22124.858      1.5275294    
    786000   786000         403.24597      403.24597      80577.357      80481.197      96.159972     -622.87043      8182.59       -9944.7543      64448.863      18415.761      0              1.6076757     -62569.086      22124.858      1.5275294    
    786500   786500         351.48172      351.48172      80560.616      80476.8        83.816019     -621.18795      8177.0332     -9944.612       64448.244      18415.715      0              1.6076757     -62747.824      22124.858      1.5275294    
    787000   787000         343.109        343.109        80558.324      80476.505      81.819421     -621.88491      8179.247      -9945.1761      64452.81       18409.901      0              1.6076757     -62946.689      22124.858      1.5275294    
    787500   787500         349.14243      349.14243      80567.778      80484.519      83.258182     -622.92594      8182.6016     -9944.4336      64459.668      18408.002      0              1.6076757     -62758.632      22124.858      1.5275294    
    788000   788000         313.3097       313.3097       80567.921      80493.207      74.713336     -621.6604       8179.1058     -9944.72        64468.123      18410.751      0              1.6076757     -62424.048      22124.858      1.5275294    
    788500   788500         273.72468      273.72468      80550.645      80485.372      65.273702     -621.18056      8178.4615     -9944.4348      64463.993      18406.924      0              1.6076757     -63155.67       22124.858      1.5275294    
    789000   789000         228.64372      228.64372      80548.647      80494.124      54.523479     -622.35166      8179.799      -9944.8185      64465.06       18414.827      0              1.6076757     -62614.101      22124.858      1.5275294    
    789500   789500         194.99243      194.99243      80549.936      80503.437      46.498832     -620.16951      8177.6999     -9944.8142      64473.662      18415.452      0              1.6076757     -63181.565      22124.858      1.5275294    
    790000   790000         247.25104      247.25104      80562.637      80503.676      58.960672     -623.70653      8181.1363     -9944.5387      64472.674      18416.503      0              1.6076757     -62791.039      22124.858      1.5275294    
    790500   790500         268.14462      268.14462      80559.137      80495.194      63.943054     -623.07695      8180.7913     -9945.0083      64467.031      18413.849      0              1.6076757     -63051.926      22124.858      1.5275294    
    791000   791000         272.10132      272.10132      80548.194      80483.307      64.886588     -617.49712      8173.5008     -9944.3801      64457.86       18412.216      0              1.6076757     -62488.588      22124.858      1.5275294    
    791500   791500         331.38169      331.38169      80557.247      80478.224      79.022869     -620.41224      8177.783      -9944.947       64455.236      18408.956      0              1.6076757     -63187.611      22124.858      1.5275294    
    792000   792000         351.44129      351.44129      80563.819      80480.013      83.806379     -621.649        8177.4073     -9944.5494      64455.133      18412.063      0              1.6076757     -62394.988      22124.858      1.5275294    
    792500   792500         372.31175      372.31175      80563.73       80474.947      88.783249     -621.31747      8179.071      -9944.2924      64450.986      18408.892      0              1.6076757     -62535.378      22124.858      1.5275294    
    793000   793000         337.36972      337.36972      80560.61       80480.159      80.450803     -622.03644      8177.1038     -9944.6553      64456.557      18411.583      0              1.6076757     -63511.517      22124.858      1.5275294    
    793500   793500         303.11123      303.11123      80555.407      80483.126      72.28136      -619.07052      8177.4146     -9944.3785      64457.281      18410.271      0              1.6076757     -61715.135      22124.858      1.5275294    
    794000   794000         347.85951      347.85951      80572.985      80490.033      82.952251     -621.63303      8178.3211     -9944.6763      64465.622      18410.792      0              1.6076757     -63848.922      22124.858      1.5275294    
    794500   794500         298.5325       298.5325       80565.68       80494.491      71.189493     -622.80716      8179.8859     -9944.5047      64467.012      18413.297      0              1.6076757     -61899.68       22124.858      1.5275294    
    795000   795000         269.39843      269.39843      80559.063      80494.821      64.242043     -621.61988      8178.3821     -9945.0312      64468.806      18412.676      0              1.6076757     -63545.25       22124.858      1.5275294    
    795500   795500         293.43049      293.43049      80569.44       80499.467      69.972843     -621.46594      8179.998      -9944.8607      64469.639      18414.549      0              1.6076757     -62292.434      22124.858      1.5275294    
    796000   796000         295.08503      295.08503      80560.373      80490.006      70.367393     -621.41344      8178.1407     -9945.0004      64464.162      18412.509      0              1.6076757     -63347.977      22124.858      1.5275294    
    796500   796500         271.71795      271.71795      80546.47       80481.675      64.795167     -622.63288      8179.7945     -9945.1044      64455.968      18412.042      0              1.6076757     -62257.726      22124.858      1.5275294    
    797000   797000         288.87658      288.87658      80552.113      80483.226      68.886896     -623.25991      8180.5647     -9944.6529      64456.538      18412.429      0              1.6076757     -63489.121      22124.858      1.5275294    
    797500   797500         309.86907      309.86907      80555.664      80481.771      73.892868     -622.39859      8180.2134     -9945.008       64453.353      18414.003      0              1.6076757     -62232.417      22124.858      1.5275294    
    798000   798000         347.08802      347.08802      80573.952      80491.183      82.768276     -620.10817      8177.495      -9944.139       64459.54       18416.788      0              1.6076757     -63314.235      22124.858      1.5275294    
    798500   798500         325.67237      325.67237      80577.628      80499.966      77.661398     -623.04093      8181.1183     -9945.336       64466.944      18418.674      0              1.6076757     -62554.471      22124.858      1.5275294    
    799000   799000         266.39521      266.39521      80562.601      80499.075      63.525881     -620.20835      8176.7832     -9944.4574      64470.27       18415.08       0              1.6076757     -62902.046      22124.858      1.5275294    
    799500   799500         264.88964      264.88964      80557.596      80494.429      63.166857     -622.60079      8181.0219     -9945.4776      64466.872      18413.006      0              1.6076757     -62909.295      22124.858      1.5275294    
    800000   800000         275.26055      275.26055      80555.425      80489.785      65.639952     -621.14461      8178.1403     -9944.5644      64463.717      18412.029      0              1.6076757     -62875.633      22124.858      1.5275294    
    800500   800500         312.49153      312.49153      80589.29       80514.771      74.518232     -619.49991      8179.1995     -9944.9298      64475.467      18422.927      0              1.6076757     -62766.541      22124.858      1.5275294    
    801000   801000         265.27876      265.27876      80559.673      80496.414      63.259649     -622.21309      8178.2264     -9944.71        64466.473      18417.03       0              1.6076757     -62691.798      22124.858      1.5275294    
    801500   801500         278.16569      278.16569      80555.053      80488.72       66.332727     -622.66667      8180.3897     -9945.308       64464.551      18410.147      0              1.6076757     -63402.693      22124.858      1.5275294    
    802000   802000         282.02085      282.02085      80547.477      80480.225      67.252047     -624.8736       8182.2195     -9944.8257      64456.555      18409.543      0              1.6076757     -62105.114      22124.858      1.5275294    
    802500   802500         328.18912      328.18912      80559.314      80481.052      78.261555     -619.11882      8175.431      -9945.214       64455.35       18412.997      0              1.6076757     -63401.029      22124.858      1.5275294    
    803000   803000         351.89434      351.89434      80569.223      80485.309      83.914415     -619.19384      8176.249      -9944.5646      64453.356      18417.855      0              1.6076757     -62358.33       22124.858      1.5275294    
    803500   803500         360.40163      360.40163      80578.196      80492.253      85.943105     -624.58437      8183.9788     -9944.996       64458.201      18418.046      0              1.6076757     -63061.216      22124.858      1.5275294    
    804000   804000         281.99309      281.99309      80555.16       80487.914      67.245427     -622.25503      8176.9123     -9944.9113      64458.967      18417.593      0              1.6076757     -62726.952      22124.858      1.5275294    
    804500   804500         264.74444      264.74444      80549.737      80486.605      63.132231     -619.38287      8179.0646     -9945.1449      64457.97       18412.491      0              1.6076757     -63056.642      22124.858      1.5275294    
    805000   805000         257.78923      257.78923      80544.687      80483.214      61.473657     -620.78502      8176.1404     -9944.9064      64457.014      18414.143      0              1.6076757     -62563.739      22124.858      1.5275294    
    805500   805500         283.15688      283.15688      80557.187      80489.664      67.522951     -620.18322      8177.5381     -9944.4969      64462.42       18412.779      0              1.6076757     -62918.418      22124.858      1.5275294    
    806000   806000         294.39945      294.39945      80564.207      80494.003      70.203906     -621.96806      8177.5642     -9944.4783      64465.78       18415.497      0              1.6076757     -63089.92       22124.858      1.5275294    
    806500   806500         279.43422      279.43422      80558.19       80491.554      66.635226     -621.71429      8177.8712     -9944.6649      64465.519      18412.936      0              1.6076757     -62232.441      22124.858      1.5275294    
    807000   807000         316.07137      316.07137      80553.079      80477.707      75.371898     -621.18018      8176.537      -9944.3475      64457.415      18407.675      0              1.6076757     -63346.116      22124.858      1.5275294    
    807500   807500         334.50162      334.50162      80553.423      80473.656      79.766864     -621.84101      8177.8656     -9944.3292      64453.489      18406.864      0              1.6076757     -62228.568      22124.858      1.5275294    
    808000   808000         335.42752      335.42752      80561.046      80481.059      79.987658     -619.3144       8175.7057     -9944.6265      64461.97       18405.717      0              1.6076757     -62902.96       22124.858      1.5275294    
    808500   808500         330.82747      330.82747      80562.923      80484.032      78.890707     -621.10441      8176.9627     -9944.1799      64463.298      18407.449      0              1.6076757     -62526.662      22124.858      1.5275294    
    809000   809000         314.85285      314.85285      80552.743      80477.662      75.081322     -621.53561      8177.5121     -9944.3824      64457.84       18406.62       0              1.6076757     -62748.336      22124.858      1.5275294    
    809500   809500         328.82924      328.82924      80558.167      80479.753      78.4142       -620.32911      8175.9771     -9944.1133      64456.134      18410.477      0              1.6076757     -62759.878      22124.858      1.5275294    
    810000   810000         319.71706      319.71706      80568.56       80492.319      76.241266     -621.33587      8178.6641     -9944.8267      64463.42       18414.79       0              1.6076757     -62637.367      22124.858      1.5275294    
    810500   810500         294.29966      294.29966      80564.231      80494.051      70.180112     -622.78327      8177.0236     -9944.2276      64465.723      18416.708      0              1.6076757     -63167.858      22124.858      1.5275294    
    811000   811000         278.45289      278.45289      80550.672      80484.27       66.401214     -618.27188      8175.4259     -9944.557       64460.056      18410.01       0              1.6076757     -62364.563      22124.858      1.5275294    
    811500   811500         311.36701      311.36701      80557.377      80483.127      74.250072     -620.45722      8175.571      -9944.1716      64457.052      18413.524      0              1.6076757     -63199.705      22124.858      1.5275294    
    812000   812000         347.82197      347.82197      80578.558      80495.615      82.943297     -621.09077      8179.3646     -9944.9771      64462.399      18418.312      0              1.6076757     -62407.697      22124.858      1.5275294    
    812500   812500         332.45501      332.45501      80578.831      80499.552      79.278819     -622.32747      8178.0675     -9944.3104      64466.638      18419.877      0              1.6076757     -63156.955      22124.858      1.5275294    
    813000   813000         288.01518      288.01518      80565.1        80496.419      68.681484     -621.7221       8178.8627     -9945.1373      64468.006      18414.802      0              1.6076757     -62848.627      22124.858      1.5275294    
    813500   813500         271.98198      271.98198      80553.885      80489.027      64.858129     -620.7669       8178.3781     -9944.6864      64463.805      18410.689      0              1.6076757     -62428.7        22124.858      1.5275294    
    814000   814000         265.29812      265.29812      80552.41       80489.145      63.264265     -621.93676      8177.5073     -9944.8137      64466.706      18410.075      0              1.6076757     -63530.195      22124.858      1.5275294    
    814500   814500         254.74269      254.74269      80547.054      80486.307      60.747165     -621.12666      8178.1543     -9944.7853      64461.708      18410.749      0              1.6076757     -62015.575      22124.858      1.5275294    
    815000   815000         312.6648       312.6648       80559.361      80484.802      74.559549     -621.01766      8177.4596     -9944.6524      64460.26       18411.145      0              1.6076757     -63390.107      22124.858      1.5275294    
    815500   815500         328.49392      328.49392      80564.291      80485.957      78.334239     -622.33958      8178.7803     -9945.0331      64457.905      18415.037      0              1.6076757     -62568.995      22124.858      1.5275294    
    816000   816000         328.70722      328.70722      80562.133      80483.748      78.385102     -620.63915      8177.1839     -9944.7738      64453.068      18417.302      0              1.6076757     -62667.095      22124.858      1.5275294    
    816500   816500         294.33348      294.33348      80549.207      80479.019      70.188174     -621.88005      8178.6299     -9945.0743      64452.453      18413.283      0              1.6076757     -63236.134      22124.858      1.5275294    
    817000   817000         276.83672      276.83672      80548.137      80482.122      66.015815     -622.56908      8180.1028     -9945.0238      64454.028      18413.976      0              1.6076757     -62389.345      22124.858      1.5275294    
    817500   817500         277.78872      277.78872      80551.793      80485.551      66.242832     -621.06689      8177.4878     -9944.8435      64459.448      18412.918      0              1.6076757     -63267.141      22124.858      1.5275294    
    818000   818000         288.9906       288.9906       80557.892      80488.978      68.914088     -622.16737      8181.05       -9945.1879      64458.499      18415.177      0              1.6076757     -62375.436      22124.858      1.5275294    
    818500   818500         294.35847      294.35847      80564.52       80494.325      70.194134     -620.95821      8176.898      -9944.7491      64461.553      18419.974      0              1.6076757     -63503.226      22124.858      1.5275294    
    819000   819000         310.34108      310.34108      80575.163      80501.158      74.005426     -620.22281      8179.5142     -9945.0472      64466.943      18418.363      0              1.6076757     -62151.194      22124.858      1.5275294    
    819500   819500         315.39556      315.39556      80564.986      80489.775      75.210741     -621.8414       8176.4432     -9944.3648      64459.689      18418.242      0              1.6076757     -63552.689      22124.858      1.5275294    
    820000   820000         280.86846      280.86846      80555.579      80488.601      66.977242     -622.88229      8183.4478     -9945.2058      64458.236      18413.398      0              1.6076757     -62161.322      22124.858      1.5275294    
    820500   820500         250.72879      250.72879      80550.316      80490.526      59.789992     -621.62131      8176.422      -9945.1889      64466.301      18413.006      0              1.6076757     -63356.432      22124.858      1.5275294    
    821000   821000         276.46873      276.46873      80565.631      80499.703      65.928061     -623.71003      8183.9653     -9945.2965      64468.856      18414.281      0              1.6076757     -62868.839      22124.858      1.5275294    
    821500   821500         281.88788      281.88788      80557.225      80490.005      67.220338     -621.31716      8177.3339     -9945.2898      64459.786      18417.884      0              1.6076757     -62406.376      22124.858      1.5275294    
    822000   822000         256.18595      256.18595      80550.374      80489.283      61.091332     -623.11258      8182.8662     -9945.6631      64462.282      18411.302      0              1.6076757     -63574.657      22124.858      1.5275294    
    822500   822500         259.40781      259.40781      80548.102      80486.243      61.859633     -620.92167      8176.1615     -9945.1613      64454.365      18420.191      0              1.6076757     -62562.442      22124.858      1.5275294    
    823000   823000         307.10602      307.10602      80560.348      80487.114      73.233977     -621.65894      8181.0201     -9945.0804      64454.246      18416.98       0              1.6076757     -62679.769      22124.858      1.5275294    
    823500   823500         293.69131      293.69131      80557.945      80487.91       70.035041     -622.4604       8177.7352     -9944.9639      64460.178      18415.813      0              1.6076757     -63496.049      22124.858      1.5275294    
    824000   824000         253.42082      253.42082      80547.847      80487.415      60.431947     -623.15781      8181.8588     -9945.1337      64457.701      18414.54       0              1.6076757     -62243.921      22124.858      1.5275294    
    824500   824500         303.61552      303.61552      80552.52       80480.119      72.401616     -620.89288      8176.3733     -9945.1223      64453.795      18414.358      0              1.6076757     -63163.823      22124.858      1.5275294    
    825000   825000         327.83921      327.83921      80564.606      80486.428      78.178112     -623.83092      8182.0644     -9945.262       64457.549      18414.3        0              1.6076757     -63031.615      22124.858      1.5275294    
    825500   825500         294.27473      294.27473      80558.238      80488.064      70.174167     -621.24838      8178.5375     -9945.3466      64457.806      18416.708      0              1.6076757     -62268.96       22124.858      1.5275294    
    826000   826000         278.00414      278.00414      80550.486      80484.192      66.294203     -624.32402      8181.9325     -9945.4464      64459.64       18410.782      0              1.6076757     -63688.24       22124.858      1.5275294    
    826500   826500         269.7548       269.7548       80551.139      80486.812      64.327026     -623.14316      8182.291      -9945.6623      64458.179      18413.54       0              1.6076757     -62049.629      22124.858      1.5275294    
    827000   827000         290.51733      290.51733      80561.12       80491.842      69.278158     -620.80297      8178.5673     -9945.5026      64464.151      18413.822      0              1.6076757     -63692.788      22124.858      1.5275294    
    827500   827500         355.60522      355.60522      80575.289      80490.489      84.79933      -626.12859      8186.2584     -9945.5989      64459.295      18415.055      0              1.6076757     -61982.161      22124.858      1.5275294    
    828000   828000         334.25265      334.25265      80569.59       80489.882      79.707494     -622.05522      8178.5557     -9945.1635      64461.333      18415.604      0              1.6076757     -63778.66       22124.858      1.5275294    
    828500   828500         306.50335      306.50335      80566.745      80493.655      73.09026      -622.65948      8181.1939     -9945.5296      64460.112      18418.931      0              1.6076757     -62180.17       22124.858      1.5275294    
    829000   829000         271.47977      271.47977      80551.498      80486.76       64.73837      -623.55342      8180.0587     -9944.6716      64458.642      18414.677      0              1.6076757     -63089.863      22124.858      1.5275294    
    829500   829500         235.62115      235.62115      80547.403      80491.215      56.187351     -621.28367      8178.2748     -9945.4413      64464.959      18413.099      0              1.6076757     -62976.586      22124.858      1.5275294    
    830000   830000         280.65178      280.65178      80560.991      80494.065      66.925571     -623.8641       8181.5606     -9945.2262      64463.3        18416.687      0              1.6076757     -63117.987      22124.858      1.5275294    
    830500   830500         261.20622      261.20622      80559.538      80497.249      62.28849      -623.87571      8183.4422     -9945.4382      64466.212      18415.301      0              1.6076757     -62604.294      22124.858      1.5275294    
    831000   831000         276.51662      276.51662      80548.652      80482.712      65.939481     -623.25134      8180.6608     -9945.6029      64457.346      18411.953      0              1.6076757     -62850.513      22124.858      1.5275294    
    831500   831500         304.11202      304.11202      80553.636      80481.116      72.520012     -622.69824      8179.8059     -9945.3624      64455.321      18412.442      0              1.6076757     -63188.722      22124.858      1.5275294    
    832000   832000         352.97476      352.97476      80565.908      80481.736      84.172057     -622.44415      8181.4457     -9945.5092      64452.236      18414.4        0              1.6076757     -62529.961      22124.858      1.5275294    
    832500   832500         327.67387      327.67387      80567.082      80488.943      78.138684     -622.38351      8181.0836     -9945.667       64455.929      18418.373      0              1.6076757     -63163.515      22124.858      1.5275294    
    833000   833000         265.88346      265.88346      80543.458      80480.055      63.403848     -623.8389       8179.7698     -9945.431       64453.284      18414.663      0              1.6076757     -62167.62       22124.858      1.5275294    
    833500   833500         272.10795      272.10795      80549.86       80484.972      64.888169     -623.22605      8181.6249     -9945.3564      64460.053      18410.269      0              1.6076757     -63596.421      22124.858      1.5275294    
    834000   834000         312.76603      312.76603      80566.977      80492.393      74.583689     -623.32139      8180.2333     -9945.5635      64463.743      18415.694      0              1.6076757     -62532.121      22124.858      1.5275294    
    834500   834500         309.98606      309.98606      80569.414      80495.493      73.920765     -622.68337      8182.6247     -9945.501       64461.615      18417.83       0              1.6076757     -63349.821      22124.858      1.5275294    
    835000   835000         253.18268      253.18268      80559.486      80499.111      60.375158     -623.84991      8181.7324     -9945.967       64465.35       18420.238      0              1.6076757     -62334.305      22124.858      1.5275294    
    835500   835500         260.74804      260.74804      80552.462      80490.283      62.179231     -623.19337      8180.5331     -9945.2319      64463.865      18412.703      0              1.6076757     -63151.014      22124.858      1.5275294    
    836000   836000         286.07543      286.07543      80554.741      80486.522      68.218921     -623.77704      8182.4358     -9946.1571      64462.483      18409.93       0              1.6076757     -62585.434      22124.858      1.5275294    
    836500   836500         312.02705      312.02705      80560.848      80486.44       74.407469     -622.23386      8180.1383     -9945.0418      64462.337      18409.633      0              1.6076757     -63378.78       22124.858      1.5275294    
    837000   837000         311.2269       311.2269       80576.71       80502.493      74.216661     -622.52258      8180.8978     -9945.7247      64469.077      18419.158      0              1.6076757     -62495.951      22124.858      1.5275294    
    837500   837500         291.86281      291.86281      80574.097      80504.498      69.599009     -623.06724      8180.5339     -9945.5105      64469.504      18421.43       0              1.6076757     -62838.559      22124.858      1.5275294    
    838000   838000         278.69926      278.69926      80565.641      80499.181      66.459964     -623.4651       8181.0183     -9944.9836      64469.217      18415.786      0              1.6076757     -63129.277      22124.858      1.5275294    
    838500   838500         252.98383      252.98383      80554.373      80494.046      60.327739     -623.67018      8180.0827     -9945.8354      64465.469      18416.392      0              1.6076757     -63125.602      22124.858      1.5275294    
    839000   839000         291.15603      291.15603      80555.706      80486.275      69.430465     -624.245        8183.7036     -9945.3563      64455.011      18415.554      0              1.6076757     -62732.423      22124.858      1.5275294    
    839500   839500         337.08913      337.08913      80563.532      80483.148      80.383894     -621.84632      8179.784      -9945.2457      64450.479      18418.37       0              1.6076757     -62701.166      22124.858      1.5275294    
    840000   840000         358.95944      358.95944      80568.266      80482.667      85.599193     -621.94581      8180.7437     -9945.6014      64450.553      18417.309      0              1.6076757     -62961.664      22124.858      1.5275294    
    840500   840500         377.1256       377.1256       80572.859      80482.928      89.931183     -624.71376      8182.3409     -9945.3901      64455.368      18413.715      0              1.6076757     -63136.755      22124.858      1.5275294    
    841000   841000         322.9609       322.9609       80557.932      80480.917      77.014808     -622.17294      8180.8811     -9945.3731      64454.887      18411.087      0              1.6076757     -62370.979      22124.858      1.5275294    
    841500   841500         334.07033      334.07033      80572.178      80492.514      79.664017     -622.12289      8180.7327     -9945.4145      64464.133      18413.578      0              1.6076757     -62896.707      22124.858      1.5275294    
    842000   842000         343.53398      343.53398      80577.045      80495.124      81.920762     -621.34395      8178.3677     -9945.3559      64467.264      18414.585      0              1.6076757     -63061.92       22124.858      1.5275294    
    842500   842500         321.7291       321.7291       80572.58       80495.859      76.721068     -622.3434       8182.5703     -9945.4321      64466.305      18413.152      0              1.6076757     -62434.198      22124.858      1.5275294    
    843000   843000         240.82326      240.82326      80561.189      80503.761      57.427872     -622.38096      8176.6542     -9944.9127      64473.345      18419.448      0              1.6076757     -63495.515      22124.858      1.5275294    
    843500   843500         214.21257      214.21257      80556.981      80505.899      51.082158     -622.92482      8184.3535     -9945.2778      64473.29       18414.85       0              1.6076757     -62102.01       22124.858      1.5275294    
    844000   844000         197.94133      197.94133      80557.489      80510.287      47.20204      -621.52516      8176.8936     -9944.9938      64481.373      18416.931      0              1.6076757     -63967.514      22124.858      1.5275294    
    844500   844500         267.62821      267.62821      80575.964      80512.144      63.819909     -623.50528      8186.6799     -9945.0944      64474.438      18418.019      0              1.6076757     -62186.4        22124.858      1.5275294    
    845000   845000         338.25017      338.25017      80578.782      80498.121      80.660761     -620.75917      8177.7164     -9944.8165      64465.1        18419.273      0              1.6076757     -63319.041      22124.858      1.5275294    
    845500   845500         336.6572       336.6572       80565.983      80485.702      80.280893     -622.27181      8182.2528     -9945.2409      64457.343      18412.011      0              1.6076757     -62556.438      22124.858      1.5275294    
    846000   846000         325.53142      325.53142      80561.181      80483.553      77.627785     -623.12823      8180.2131     -9945.2131      64458.001      18412.073      0              1.6076757     -62941.006      22124.858      1.5275294    
    846500   846500         295.71205      295.71205      80549.895      80479.378      70.516916     -621.0952       8179.1279     -9944.5997      64454.168      18410.169      0              1.6076757     -62673.641      22124.858      1.5275294    
    847000   847000         336.59898      336.59898      80561.865      80481.598      80.26701      -623.42712      8181.3701     -9945.1369      64451.138      18416.046      0              1.6076757     -63125.762      22124.858      1.5275294    
    847500   847500         343.64079      343.64079      80562.46       80480.514      81.946234     -623.35101      8181.1895     -9945.2085      64447.536      18418.741      0              1.6076757     -62558.265      22124.858      1.5275294    
    848000   848000         304.56337      304.56337      80554.607      80481.98       72.627643     -619.94338      8179.6204     -9945.1721      64452.12       18413.748      0              1.6076757     -63060.92       22124.858      1.5275294    
    848500   848500         267.7649       267.7649       80553.873      80490.02       63.852504     -622.71108      8181.0892     -9945.2299      64457.885      18417.38       0              1.6076757     -62656.566      22124.858      1.5275294    
    849000   849000         271.3873       271.3873       80555.787      80491.071      64.716319     -625.42384      8184.5607     -9945.3664      64462.216      18413.476      0              1.6076757     -63249.705      22124.858      1.5275294    
    849500   849500         329.73182      329.73182      80567.828      80489.199      78.629434     -623.56535      8183.493      -9945.2105      64457.926      18414.948      0              1.6076757     -62597.418      22124.858      1.5275294    
    850000   850000         385.22386      385.22386      80578.797      80486.934      91.862332     -619.85807      8177.7853     -9944.905       64455.405      18416.9        0              1.6076757     -62946.02       22124.858      1.5275294    
    850500   850500         360.36924      360.36924      80573.245      80487.31       85.93538      -622.48672      8182.3953     -9945.2181      64456.341      18414.671      0              1.6076757     -62581.976      22124.858      1.5275294    
    851000   851000         331.36588      331.36588      80565.75       80486.731      79.0191       -622.69059      8181.4677     -9945.3651      64456.909      18414.802      0              1.6076757     -62975.661      22124.858      1.5275294    
    851500   851500         309.85262      309.85262      80559.412      80485.523      73.888944     -622.92426      8180.8716     -9945.0077      64456.72       18414.255      0              1.6076757     -63016.02       22124.858      1.5275294    
    852000   852000         271.98803      271.98803      80547.838      80482.978      64.859572     -622.83565      8181.3764     -9945.164       64455.876      18412.118      0              1.6076757     -62516.93       22124.858      1.5275294    
    852500   852500         277.28186      277.28186      80555.874      80489.752      66.121965     -621.26973      8180.7195     -9945.4599      64460.915      18413.24       0              1.6076757     -63319.117      22124.858      1.5275294    
    853000   853000         290.86868      290.86868      80571.537      80502.175      69.361942     -623.11199      8181.9242     -9945.092       64468.32       18418.527      0              1.6076757     -62478.348      22124.858      1.5275294    
    853500   853500         257.75073      257.75073      80562.452      80500.988      61.464479     -622.07327      8183.0765     -9944.9964      64467.255      18416.118      0              1.6076757     -63320.337      22124.858      1.5275294    
    854000   854000         225.55962      225.55962      80550.69       80496.902      53.788031     -621.95083      8176.8027     -9944.7362      64464.875      18420.303      0              1.6076757     -62728.856      22124.858      1.5275294    
    854500   854500         211.39708      211.39708      80544.112      80493.702      50.410763     -621.89333      8181.9255     -9944.881       64462.563      18414.38       0              1.6076757     -62960.218      22124.858      1.5275294    
    855000   855000         270.51188      270.51188      80560.149      80495.642      64.507562     -620.84118      8175.1038     -9944.7444      64465.087      18419.429      0              1.6076757     -63021.358      22124.858      1.5275294    
    855500   855500         303.01718      303.01718      80564.853      80492.594      72.258933     -624.75469      8186.1916     -9945.1758      64461.267      18413.458      0              1.6076757     -62964.408      22124.858      1.5275294    
    856000   856000         297.40892      297.40892      80564.936      80494.015      70.921559     -621.15084      8177.5397     -9944.7429      64462.555      18418.206      0              1.6076757     -62422.903      22124.858      1.5275294    
    856500   856500         290.98057      290.98057      80561.316      80491.928      69.388626     -620.90015      8179.7225     -9945.0198      64467.104      18409.413      0              1.6076757     -63551.097      22124.858      1.5275294    
    857000   857000         245.78502      245.78502      80548.524      80489.913      58.611076     -622.60526      8180.2036     -9944.9516      64460.676      18414.983      0              1.6076757     -62099.31       22124.858      1.5275294    
    857500   857500         258.36167      258.36167      80550.115      80488.505      61.610164     -622.15865      8180.2402     -9945.0203      64461.164      18412.671      0              1.6076757     -63581.641      22124.858      1.5275294    
    858000   858000         271.31014      271.31014      80554.993      80490.295      64.69792      -621.9588       8180.506      -9945.19        64459.809      18415.521      0              1.6076757     -62367.616      22124.858      1.5275294    
    858500   858500         301.39875      301.39875      80565.908      80494.035      71.872993     -623.58613      8182.7368     -9944.1484      64463.315      18414.111      0              1.6076757     -63349.401      22124.858      1.5275294    
    859000   859000         289.79126      289.79126      80561.857      80492.752      69.105017     -621.57237      8180.6279     -9945.3233      64462.41       18415.002      0              1.6076757     -62303.162      22124.858      1.5275294    
    859500   859500         271.84064      271.84064      80553.763      80488.939      64.824426     -620.88913      8178.2509     -9944.2397      64460.809      18413.4        0              1.6076757     -63540.783      22124.858      1.5275294    
    860000   860000         273.52585      273.52585      80545.157      80479.931      65.226289     -623.24178      8180.3002     -9944.9458      64452.464      18413.747      0              1.6076757     -62300.516      22124.858      1.5275294    
    860500   860500         279.05841      279.05841      80542.854      80476.308      66.545609     -621.57588      8179.2637     -9944.4968      64449.03       18412.48       0              1.6076757     -63101.997      22124.858      1.5275294    
    861000   861000         334.40611      334.40611      80566.17       80486.426      79.744087     -623.81601      8181.6947     -9944.7897      64457.255      18414.474      0              1.6076757     -62955.474      22124.858      1.5275294    
    861500   861500         333.56128      333.56128      80563.541      80483.998      79.542625     -621.25859      8181.0918     -9944.9374      64455.48       18412.015      0              1.6076757     -62474.747      22124.858      1.5275294    
    862000   862000         299.86496      299.86496      80549.063      80477.555      71.507238     -619.99591      8176.9225     -9945.001       64455.377      18408.645      0              1.6076757     -63031.683      22124.858      1.5275294    
    862500   862500         280.65345      280.65345      80545.361      80478.436      66.925969     -622.83027      8181.9075     -9944.8147      64456.783      18405.782      0              1.6076757     -62584.118      22124.858      1.5275294    
    863000   863000         294.16587      294.16587      80554.708      80484.559      70.148206     -622.22354      8178.5987     -9944.7402      64458.053      18413.264      0              1.6076757     -63027.416      22124.858      1.5275294    
    863500   863500         326.12959      326.12959      80563.372      80485.602      77.770428     -625.28023      8185.9461     -9944.6568      64457.388      18410.598      0              1.6076757     -62603.169      22124.858      1.5275294    
    864000   864000         313.92737      313.92737      80560.429      80485.568      74.86063      -618.27622      8174.7945     -9944.6202      64457.901      18414.161      0              1.6076757     -62987.168      22124.858      1.5275294    
    864500   864500         289.13054      289.13054      80552.209      80483.261      68.947458     -621.26631      8181.613      -9944.9814      64457.006      18409.283      0              1.6076757     -62633.784      22124.858      1.5275294    
    865000   865000         281.52853      281.52853      80557.568      80490.433      67.134647     -621.72048      8177.5132     -9944.3018      64462.064      18415.271      0              1.6076757     -62921.659      22124.858      1.5275294    
    865500   865500         305.51341      305.51341      80573.301      80500.447      72.854196     -622.20243      8183.4994     -9944.8781      64467.804      18414.616      0              1.6076757     -62648.994      22124.858      1.5275294    
    866000   866000         312.5169       312.5169       80578.04       80503.516      74.524281     -623.40642      8179.4844     -9944.3354      64471.173      18418.993      0              1.6076757     -63337.767      22124.858      1.5275294    
    866500   866500         248.10149      248.10149      80553.609      80494.445      59.163472     -620.9276       8179.8359     -9944.5284      64464.777      18413.68       0              1.6076757     -62476.845      22124.858      1.5275294    
    867000   867000         264.20865      264.20865      80557.511      80494.507      63.004465     -619.15236      8175.4925     -9944.7877      64464.818      18416.529      0              1.6076757     -62933.527      22124.858      1.5275294    
    867500   867500         276.03764      276.03764      80565.606      80499.781      65.825261     -623.28588      8181.0944     -9944.0625      64470.608      18413.819      0              1.6076757     -63170.83       22124.858      1.5275294    
    868000   868000         280.69942      280.69942      80562.479      80495.542      66.936932     -624.70924      8182.0226     -9945.0268      64466.689      18414.958      0              1.6076757     -62481.959      22124.858      1.5275294    
    868500   868500         261.37156      261.37156      80552.432      80490.104      62.327918     -618.76588      8177.6633     -9944.2648      64463.481      18410.383      0              1.6076757     -63107.725      22124.858      1.5275294    
    869000   869000         227.67202      227.67202      80552.381      80498.089      54.291763     -621.26879      8177.5787     -9944.727       64467.154      18417.745      0              1.6076757     -62792.154      22124.858      1.5275294    
    869500   869500         201.07527      201.07527      80555.784      80507.835      47.949375     -624.43883      8183.8293     -9944.3937      64474.216      18417.014      0              1.6076757     -63079.211      22124.858      1.5275294    
    870000   870000         230.92795      230.92795      80586.175      80531.106      55.068189     -624.07991      8180.2413     -9944.2857      64487.834      18429.789      0              1.6076757     -62995.059      22124.858      1.5275294    
    870500   870500         209.98156      209.98156      80559.272      80509.199      50.073212     -622.67074      8183.3183     -9944.538       64475.757      18415.724      0              1.6076757     -63158.493      22124.858      1.5275294    
    871000   871000         228.4555       228.4555       80553.428      80498.949      54.478596     -620.05336      8175.5559     -9944.4281      64464.543      18421.724      0              1.6076757     -62889.432      22124.858      1.5275294    
    871500   871500         293.33025      293.33025      80554.317      80484.368      69.948941     -622.33098      8182.304      -9944.6673      64455.202      18412.253      0              1.6076757     -62577.846      22124.858      1.5275294    
    872000   872000         367.18419      367.18419      80564.913      80477.353      87.560505     -620.40244      8177.3723     -9944.8592      64447.537      18416.097      0              1.6076757     -63463.667      22124.858      1.5275294    
    872500   872500         370.08319      370.08319      80564.171      80475.919      88.251816     -623.2396       8181.8707     -9944.5879      64443.659      18416.609      0              1.6076757     -61866.55       22124.858      1.5275294    
    873000   873000         357.86335      357.86335      80554.281      80468.943      85.337812     -623.0147       8181.9795     -9945.176       64442.625      18410.921      0              1.6076757     -63709.899      22124.858      1.5275294    
    873500   873500         337.09125      337.09125      80551.775      80471.39       80.384399     -619.24449      8175.3398     -9944.5077      64441.345      18416.85       0              1.6076757     -62047.227      22124.858      1.5275294    
    874000   874000         349.10113      349.10113      80561.053      80477.805      83.248332     -622.13079      8182.2624     -9944.513       64447.135      18413.443      0              1.6076757     -63329.684      22124.858      1.5275294    
    874500   874500         330.44168      330.44168      80564.836      80486.037      78.798711     -623.54873      8179.3358     -9944.9119      64452.316      18421.238      0              1.6076757     -62544.072      22124.858      1.5275294    
    875000   875000         304.88922      304.88922      80567.667      80494.962      72.705347     -622.36017      8181.441      -9944.3896      64459.198      18419.465      0              1.6076757     -63018.937      22124.858      1.5275294    
    875500   875500         287.37384      287.37384      80567.381      80498.853      68.528545     -621.71481      8177.6984     -9945.0539      64461.515      18424.801      0              1.6076757     -63307.203      22124.858      1.5275294    
    876000   876000         254.4155       254.4155       80558.934      80498.265      60.669141     -621.68009      8181.0166     -9944.6017      64462.553      18419.37       0              1.6076757     -62199.925      22124.858      1.5275294    
    876500   876500         253.72253      253.72253      80556.532      80496.028      60.503893     -619.55872      8176.8107     -9945.0425      64467.888      18414.322      0              1.6076757     -63831.641      22124.858      1.5275294    
    877000   877000         269.91889      269.91889      80557.725      80493.359      64.366155     -624.23147      8183.1848     -9944.5998      64463.414      18413.983      0              1.6076757     -62045.3        22124.858      1.5275294    
    877500   877500         358.64192      358.64192      80589.896      80504.372      85.523476     -623.08753      8180.4041     -9944.5938      64471.044      18418.997      0              1.6076757     -63346.647      22124.858      1.5275294    
    878000   878000         288.20208      288.20208      80557.165      80488.438      68.726054     -622.52984      8181.0131     -9945.0107      64461.309      18412.049      0              1.6076757     -62935.371      22124.858      1.5275294    
    878500   878500         272.89808      272.89808      80552.384      80487.307      65.076587     -618.74552      8176.0914     -9944.3474      64459.089      18413.612      0              1.6076757     -62350.309      22124.858      1.5275294    
    879000   879000         281.91642      281.91642      80548.355      80481.128      67.227144     -624.45794      8182.0226     -9945.5023      64458.705      18408.753      0              1.6076757     -63442.485      22124.858      1.5275294    
    879500   879500         305.31936      305.31936      80560.152      80487.344      72.807921     -621.52238      8179.7532     -9944.1198      64460.646      18410.979      0              1.6076757     -62182.211      22124.858      1.5275294    
    880000   880000         327.77974      327.77974      80565.402      80487.238      78.16393      -621.22121      8177.1509     -9945.2483      64464.761      18410.188      0              1.6076757     -63263.093      22124.858      1.5275294    
    880500   880500         312.1837       312.1837       80569.815      80495.37       74.444826     -621.87243      8182.3259     -9944.7397      64468.106      18409.943      0              1.6076757     -62399.651      22124.858      1.5275294    
    881000   881000         276.85063      276.85063      80557.285      80491.266      66.019132     -620.36362      8175.5678     -9945.1732      64466.779      18412.848      0              1.6076757     -62907.347      22124.858      1.5275294    
    881500   881500         295.58711      295.58711      80573.721      80503.234      70.487122     -622.7486       8181.7089     -9944.311       64473.216      18413.761      0              1.6076757     -63160.414      22124.858      1.5275294    
    882000   882000         289.31362      289.31362      80579.945      80510.954      68.991115     -623.13183      8181.0406     -9944.7281      64476.261      18419.904      0              1.6076757     -62127.377      22124.858      1.5275294    
    882500   882500         294.93938      294.93938      80569.952      80499.619      70.332662     -617.82028      8175.6791     -9944.5462      64472.924      18411.775      0              1.6076757     -63815.258      22124.858      1.5275294    
    883000   883000         285.50506      285.50506      80565.33       80497.247      68.082909     -622.08214      8180.5125     -9944.7294      64467.171      18414.768      0              1.6076757     -61721.61       22124.858      1.5275294    
    883500   883500         272.53448      272.53448      80548.157      80483.167      64.989882     -621.20543      8177.86       -9944.8121      64459.908      18409.809      0              1.6076757     -63642.501      22124.858      1.5275294    
    884000   884000         305.6486       305.6486       80560.404      80487.517      72.886434     -619.11237      8176.83       -9944.2921      64456.85       18415.634      0              1.6076757     -62385.16       22124.858      1.5275294    
    884500   884500         320.91936      320.91936      80561.762      80485.234      76.527972     -624.74971      8182.6232     -9944.6741      64452.839      18417.588      0              1.6076757     -62750.827      22124.858      1.5275294    
    885000   885000         360.87004      360.87004      80568.429      80482.374      86.054804     -620.37696      8176.4046     -9943.9764      64454.149      18414.566      0              1.6076757     -63272.614      22124.858      1.5275294    
    885500   885500         324.57754      324.57754      80560.907      80483.507      77.40032      -619.1912       8176.1494     -9944.5341      64453.415      18416.06       0              1.6076757     -62154.405      22124.858      1.5275294    
    886000   886000         306.25393      306.25393      80554.218      80481.187      73.030783     -621.2941       8178.245      -9943.9799      64455.936      18410.672      0              1.6076757     -63258.28       22124.858      1.5275294    
    886500   886500         335.02503      335.02503      80564.603      80484.711      79.891677     -622.97188      8178.8998     -9944.0906      64456.779      18414.487      0              1.6076757     -62584.473      22124.858      1.5275294    
    887000   887000         346.85252      346.85252      80566.485      80483.773      82.712118     -619.31183      8175.218      -9943.9271      64454.255      18415.932      0              1.6076757     -62653.684      22124.858      1.5275294    
    887500   887500         363.92657      363.92657      80570.549      80483.765      86.783678     -619.85264      8177.0662     -9944.2955      64455.745      18413.495      0              1.6076757     -63022.189      22124.858      1.5275294    
    888000   888000         335.8089       335.8089       80558.751      80478.673      80.078604     -620.49879      8179.5387     -9944.8571      64448.974      18413.908      0              1.6076757     -62613.483      22124.858      1.5275294    
    888500   888500         313.24586      313.24586      80545.155      80470.457      74.698114     -621.06841      8177.2623     -9943.8462      64447.458      18409.044      0              1.6076757     -62632.019      22124.858      1.5275294    
    889000   889000         298.3213       298.3213       80543.404      80472.265      71.139131     -623.80815      8180.533      -9944.6324      64449.671      18408.893      0              1.6076757     -63293.968      22124.858      1.5275294    
    889500   889500         298.80496      298.80496      80557.949      80486.695      71.254467     -622.89675      8181.7307     -9943.9216      64459.553      18410.621      0              1.6076757     -62079.551      22124.858      1.5275294    
    890000   890000         297.54767      297.54767      80570.162      80499.207      70.954648     -618.35238      8173.8767     -9944.6433      64471.946      18414.772      0              1.6076757     -63502.97       22124.858      1.5275294    
    890500   890500         271.17118      271.17118      80567.158      80502.494      64.664782     -621.60377      8181.8843     -9944.3857      64474.897      18410.094      0              1.6076757     -62196.776      22124.858      1.5275294    
    891000   891000         250.56588      250.56588      80554.815      80495.064      59.751143     -621.58531      8177.5055     -9944.6426      64470.614      18411.566      0              1.6076757     -63494.522      22124.858      1.5275294    
    891500   891500         265.97204      265.97204      80559.986      80496.561      63.424971     -621.98596      8180.7497     -9944.4328      64467.668      18412.955      0              1.6076757     -62016.974      22124.858      1.5275294    
    892000   892000         317.76895      317.76895      80571.513      80495.736      75.776709     -621.90168      8177.2059     -9944.246       64467.337      18415.733      0              1.6076757     -63837.477      22124.858      1.5275294    
    892500   892500         310.29036      310.29036      80566.224      80492.231      73.993329     -618.66927      8179.3148     -9944.805       64460.146      18414.637      0              1.6076757     -61753.629      22124.858      1.5275294    
    893000   893000         295.52741      295.52741      80549.574      80479.101      70.472886     -618.47071      8172.9639     -9943.9544      64456.938      18410.017      0              1.6076757     -63558.872      22124.858      1.5275294    
    893500   893500         291.28875      291.28875      80547.55       80478.088      69.462115     -622.35533      8180.0164     -9944.252       64453.07       18410.001      0              1.6076757     -62347.398      22124.858      1.5275294    
    894000   894000         331.18386      331.18386      80560.7        80481.724      78.975695     -621.75661      8176.8123     -9943.6554      64454.226      18414.491      0              1.6076757     -62605.149      22124.858      1.5275294    
    894500   894500         336.03162      336.03162      80567.159      80487.028      80.131715     -619.72851      8178.4616     -9944.3626      64458.554      18412.496      0              1.6076757     -63635.271      22124.858      1.5275294    
    895000   895000         278.31054      278.31054      80559.852      80493.484      66.367268     -619.83739      8176.0645     -9943.7561      64459.287      18420.119      0              1.6076757     -61478.118      22124.858      1.5275294    
    895500   895500         258.43893      258.43893      80548.758      80487.129      61.628588     -619.51656      8175.6952     -9944.8328      64465.955      18408.22       0              1.6076757     -64291.741      22124.858      1.5275294    
    896000   896000         265.06155      265.06155      80554.482      80491.274      63.20785      -621.79597      8181.061      -9944.2275      64462.425      18412.204      0              1.6076757     -61512.627      22124.858      1.5275294    
    896500   896500         343.7013       343.7013       80572.913      80490.952      81.960662     -622.93224      8178.938      -9944.4217      64465.688      18412.072      0              1.6076757     -63551.523      22124.858      1.5275294    
    897000   897000         343.59577      343.59577      80576.464      80494.528      81.935499     -620.93757      8179.6352     -9944.6456      64467.832      18411.036      0              1.6076757     -62573.168      22124.858      1.5275294    
    897500   897500         298.50844      298.50844      80565.902      80494.718      71.183756     -620.74297      8177.3247     -9944.7633      64461.309      18419.983      0              1.6076757     -62659.191      22124.858      1.5275294    
    898000   898000         285.54477      285.54477      80553.893      80485.8        68.092377     -621.00164      8179.1563     -9944.7262      64457.629      18413.135      0              1.6076757     -63094.606      22124.858      1.5275294    
    898500   898500         302.46844      302.46844      80557.448      80485.32       72.128077     -621.67727      8178.8496     -9943.8249      64454.287      18416.078      0              1.6076757     -62822.695      22124.858      1.5275294    
    899000   899000         320.57516      320.57516      80567.314      80490.868      76.445893     -622.14462      8181.2418     -9944.5971      64459.105      18415.655      0              1.6076757     -62575.274      22124.858      1.5275294    
    899500   899500         295.95686      295.95686      80552.011      80481.436      70.575294     -621.1069       8178.9186     -9944.3719      64456.987      18409.402      0              1.6076757     -63187.276      22124.858      1.5275294    
    900000   900000         282.63955      282.63955      80545.194      80477.795      67.399585     -619.98851      8176.7882     -9944.674       64455.201      18408.86       0              1.6076757     -62270.073      22124.858      1.5275294    
    900500   900500         322.68694      322.68694      80558.913      80481.963      76.949477     -620.92638      8180.1746     -9945.0141      64458.199      18407.922      0              1.6076757     -63201.17       22124.858      1.5275294    
    901000   901000         316.3894       316.3894       80562.744      80487.297      75.447736     -622.73975      8181.1854     -9945.0471      64458.562      18413.728      0              1.6076757     -62482.713      22124.858      1.5275294    
    901500   901500         278.39144      278.39144      80555.986      80489.6        66.38656      -622.76705      8181.5508     -9945.2787      64464.345      18410.142      0              1.6076757     -62962.954      22124.858      1.5275294    
    902000   902000         235.28066      235.28066      80547.43       80491.324      56.106156     -621.26872      8178.2703     -9945.0961      64464.762      18413.048      0              1.6076757     -62956.243      22124.858      1.5275294    
    902500   902500         227.40273      227.40273      80550.182      80495.955      54.227547     -624.84542      8184.7774     -9945.3859      64468.219      18411.581      0              1.6076757     -62834.56       22124.858      1.5275294    
    903000   903000         248.42127      248.42127      80554.167      80494.927      59.23973      -622.34392      8180.0691     -9945.2246      64466.253      18414.566      0              1.6076757     -62883.786      22124.858      1.5275294    
    903500   903500         301.02837      301.02837      80560.856      80489.071      71.784671     -624.0684       8183.262      -9945.2989      64460.472      18413.097      0              1.6076757     -63072.817      22124.858      1.5275294    
    904000   904000         363.2458       363.2458       80576.708      80490.087      86.621338     -623.63954      8182.9165     -9945.1093      64459.505      18414.807      0              1.6076757     -62507.606      22124.858      1.5275294    
    904500   904500         358.6161       358.6161       80577.837      80492.319      85.517318     -619.85579      8178.3672     -9944.8288      64462.355      18414.674      0              1.6076757     -63037.214      22124.858      1.5275294    
    905000   905000         311.10316      311.10316      80562.419      80488.232      74.187155     -624.67571      8182.1987     -9945.1687      64461.801      18412.469      0              1.6076757     -62575.791      22124.858      1.5275294    
    905500   905500         266.70527      266.70527      80553.881      80490.281      63.59982      -621.95197      8179.5022     -9944.6365      64464.603      18411.157      0              1.6076757     -63258.166      22124.858      1.5275294    
    906000   906000         230.84093      230.84093      80548.396      80493.349      55.047436     -622.72372      8179.5383     -9944.8663      64463.099      18416.694      0              1.6076757     -62341.773      22124.858      1.5275294    
    906500   906500         236.42527      236.42527      80544.639      80488.26       56.379105     -623.22327      8181.617      -9944.7487      64458.237      18414.771      0              1.6076757     -63471.134      22124.858      1.5275294    
    907000   907000         273.95081      273.95081      80563.275      80497.948      65.327625     -623.15616      8181.8343     -9945.1361      64461.417      18421.381      0              1.6076757     -62498.244      22124.858      1.5275294    
    907500   907500         307.01305      307.01305      80569.693      80496.481      73.211807     -620.8116       8179.9408     -9944.8272      64462.993      18417.579      0              1.6076757     -63588.863      22124.858      1.5275294    
    908000   908000         251.92641      251.92641      80543.171      80483.096      60.075583     -622.13459      8180.3559     -9945.2173      64457.636      18410.848      0              1.6076757     -61853.882      22124.858      1.5275294    
    908500   908500         252.77544      252.77544      80548.669      80488.391      60.278045     -621.4107       8178.276      -9944.5499      64466.276      18408.193      0              1.6076757     -64001.341      22124.858      1.5275294    
    909000   909000         251.61129      251.61129      80560.089      80500.089      60.000436     -622.37238      8182.6336     -9945.3487      64466.345      18417.223      0              1.6076757     -61800.946      22124.858      1.5275294    
    909500   909500         287.93229      287.93229      80571.424      80502.762      68.661717     -620.65861      8178.8257     -9945.3689      64469.823      18418.534      0              1.6076757     -63735.635      22124.858      1.5275294    
    910000   910000         287.73704      287.73704      80559.02       80490.405      68.615158     -622.02268      8179.7193     -9944.9575      64457.496      18418.562      0              1.6076757     -62549.718      22124.858      1.5275294    
    910500   910500         295.40723      295.40723      80550.968      80480.524      70.444227     -623.3073       8182.6357     -9945.4265      64446.794      18418.221      0              1.6076757     -62864.981      22124.858      1.5275294    
    911000   911000         293.18071      293.18071      80546.926      80477.012      69.913281     -620.54976      8177.1766     -9944.9584      64445.413      18418.323      0              1.6076757     -63169.393      22124.858      1.5275294    
    911500   911500         311.386        311.386        80565.614      80491.36       74.254602     -623.70477      8184.481      -9945.4755      64455.338      18419.114      0              1.6076757     -62565.593      22124.858      1.5275294    
    912000   912000         299.44976      299.44976      80561.64       80490.232      71.408228     -621.28641      8178.059      -9945.1913      64457.137      18419.905      0              1.6076757     -63342.491      22124.858      1.5275294    
    912500   912500         278.59589      278.59589      80552.443      80486.008      66.435314     -621.26217      8179.2511     -9945.1899      64457.222      18414.379      0              1.6076757     -62274.415      22124.858      1.5275294    
    913000   913000         291.91174      291.91174      80557.579      80487.969      69.610677     -622.81861      8182.3605     -9945.282       64461.802      18410.299      0              1.6076757     -63514.63       22124.858      1.5275294    
    913500   913500         307.62319      307.62319      80562.502      80489.145      73.357305     -624.83663      8182.0472     -9944.5825      64462.29       18412.619      0              1.6076757     -62152.538      22124.858      1.5275294    
    914000   914000         261.6018       261.6018       80551.225      80488.842      62.382821     -621.57831      8180.7489     -9944.8063      64462.632      18410.238      0              1.6076757     -63354.445      22124.858      1.5275294    
    914500   914500         268.01463      268.01463      80551.251      80487.339      63.912056     -620.58171      8177.011      -9945.2667      64461.49       18413.079      0              1.6076757     -62385.412      22124.858      1.5275294    
    915000   915000         301.55986      301.55986      80555.924      80484.013      71.911413     -621.73085      8181.065      -9945.2617      64459.6        18408.733      0              1.6076757     -63126.879      22124.858      1.5275294    
    915500   915500         315.85549      315.85549      80564.526      80489.206      75.320417     -622.09212      8180.1149     -9945.4319      64460.646      18414.361      0              1.6076757     -62461.396      22124.858      1.5275294    
    916000   916000         371.97668      371.97668      80579.677      80490.974      88.703347     -620.87283      8179.1344     -9944.5587      64464.056      18411.607      0              1.6076757     -63005.248      22124.858      1.5275294    
    916500   916500         389.05091      389.05091      80574.031      80481.256      92.77495      -622.38225      8181.2322     -9944.6768      64454.106      18411.369      0              1.6076757     -62442.477      22124.858      1.5275294    
    917000   917000         355.37305      355.37305      80558.514      80473.77       84.743964     -619.79371      8175.2016     -9944.4913      64447.092      18414.153      0              1.6076757     -62906.689      22124.858      1.5275294    
    917500   917500         328.93803      328.93803      80554.31       80475.87       78.440142     -621.20698      8182.0341     -9945.0061      64446.588      18411.853      0              1.6076757     -62589.259      22124.858      1.5275294    
    918000   918000         300.22981      300.22981      80551.055      80479.461      71.594242     -622.21417      8176.8724     -9944.4599      64451.999      18415.656      0              1.6076757     -62928.69       22124.858      1.5275294    
    918500   918500         250.52065      250.52065      80547.747      80488.006      59.740358     -621.35571      8181.7611     -9945.0911      64457.476      18413.609      0              1.6076757     -63020.983      22124.858      1.5275294    
    919000   919000         236.81434      236.81434      80550.466      80493.994      56.471885     -622.4947       8178.4673     -9944.3437      64462.356      18418.401      0              1.6076757     -62374.274      22124.858      1.5275294    
    919500   919500         282.34935      282.34935      80566.518      80499.188      67.330381     -623.66373      8183.261      -9945.2532      64472.369      18410.867      0              1.6076757     -63873.842      22124.858      1.5275294    
    920000   920000         286.56853      286.56853      80563.894      80495.558      68.336508     -622.65728      8179.4041     -9944.6856      64469.971      18411.918      0              1.6076757     -61566.805      22124.858      1.5275294    
    920500   920500         280.48377      280.48377      80556.09       80489.205      66.885507     -623.29046      8181.2965     -9944.8837      64470.688      18403.787      0              1.6076757     -63987.184      22124.858      1.5275294    
    921000   921000         266.88578      266.88578      80548.252      80484.609      63.642864     -624.19087      8182.5494     -9945.1948      64462.584      18407.253      0              1.6076757     -61665.423      22124.858      1.5275294    
    921500   921500         310.43286      310.43286      80555.487      80481.46       74.027312     -623.1557       8179.1381     -9944.7891      64458.66       18409.998      0              1.6076757     -63795.219      22124.858      1.5275294    
    922000   922000         317.49649      317.49649      80557.246      80481.534      75.711739     -624.47724      8185.0953     -9945.3205      64450.363      18414.266      0              1.6076757     -62269.371      22124.858      1.5275294    
    922500   922500         330.36561      330.36561      80569.943      80491.162      78.78057      -621.69659      8178.862      -9944.642       64454.832      18422.2        0              1.6076757     -62859.762      22124.858      1.5275294    
    923000   923000         331.39349      331.39349      80577.386      80498.36       79.025683     -621.62851      8181.958      -9945.0394      64463.061      18418.402      0              1.6076757     -63333.757      22124.858      1.5275294    
    923500   923500         284.89258      284.89258      80563.125      80495.188      67.936854     -621.90767      8179.0479     -9944.5203      64454.876      18426.084      0              1.6076757     -62385.343      22124.858      1.5275294    
    924000   924000         268.02741      268.02741      80556.088      80492.173      63.915104     -621.19414      8179.1045     -9944.8389      64459.291      18418.203      0              1.6076757     -63345.766      22124.858      1.5275294    
    924500   924500         292.21281      292.21281      80564.512      80494.829      69.68247      -622.76181      8180.3954     -9944.8381      64460.816      18419.61       0              1.6076757     -62668.765      22124.858      1.5275294    
    925000   925000         333.69389      333.69389      80570.335      80490.76       79.574247     -621.49151      8179.5928     -9944.6369      64462.753      18412.935      0              1.6076757     -62840.73       22124.858      1.5275294    
    925500   925500         323.66496      323.66496      80560.107      80482.924      77.182702     -623.23613      8179.5146     -9945.0368      64456.059      18414.016      0              1.6076757     -62829.557      22124.858      1.5275294    
    926000   926000         333.66623      333.66623      80557.478      80477.911      79.567652     -622.46828      8181.228      -9944.9372      64452.532      18409.948      0              1.6076757     -62743.203      22124.858      1.5275294    
    926500   926500         304.92102      304.92102      80548.121      80475.408      72.712932     -622.58196      8181.4779     -9945.2185      64450.407      18409.716      0              1.6076757     -62694.123      22124.858      1.5275294    
    927000   927000         312.78781      312.78781      80558.806      80484.217      74.588884     -624.18654      8180.1209     -9944.993       64450.04       18421.628      0              1.6076757     -63245          22124.858      1.5275294    
    927500   927500         303.76408      303.76408      80568.771      80496.334      72.437041     -622.13352      8183.5185     -9945.2129      64457.115      18421.439      0              1.6076757     -62471.336      22124.858      1.5275294    
    928000   928000         253.86315      253.86315      80553.527      80492.989      60.537426     -623.74615      8179.1235     -9944.7936      64462.652      18418.146      0              1.6076757     -63452.208      22124.858      1.5275294    
    928500   928500         241.9022       241.9022       80547.123      80489.438      57.685161     -623.12278      8182.447      -9945.1663      64459.049      18414.623      0              1.6076757     -62554.982      22124.858      1.5275294    
    929000   929000         294.88552      294.88552      80559.775      80489.455      70.319818     -621.53411      8178.3549     -9944.8061      64457.929      18417.903      0              1.6076757     -63009.293      22124.858      1.5275294    
    929500   929500         302.90473      302.90473      80559.71       80487.478      72.232116     -622.18243      8180.5201     -9944.8165      64458.743      18413.606      0              1.6076757     -63011.345      22124.858      1.5275294    
    930000   930000         274.859        274.859        80547.592      80482.048      65.544198     -622.44781      8178.5003     -9944.8569      64453.114      18416.13       0              1.6076757     -62606.024      22124.858      1.5275294    
    930500   930500         290.92304      290.92304      80555.606      80486.231      69.374906     -620.31163      8178.3658     -9944.5897      64456.249      18414.91       0              1.6076757     -62899.639      22124.858      1.5275294    
    931000   931000         302.80109      302.80109      80568.614      80496.406      72.207402     -624.73964      8182.0742     -9944.958       64461.213      18421.209      0              1.6076757     -63436.83       22124.858      1.5275294    
    931500   931500         291.6342       291.6342       80563.051      80493.506      69.544493     -623.85088      8182.122      -9944.8309      64462.23       18416.229      0              1.6076757     -62007.908      22124.858      1.5275294    
    932000   932000         305.44312      305.44312      80570.806      80497.968      72.837435     -620.87805      8177.4665     -9945.2149      64468.286      18416.701      0              1.6076757     -63909.148      22124.858      1.5275294    
    932500   932500         292.63041      292.63041      80562.767      80492.985      69.782054     -622.00309      8181.0427     -9945.0823      64461.844      18415.576      0              1.6076757     -62052.06       22124.858      1.5275294    
    933000   933000         318.74562      318.74562      80558.312      80482.302      76.009612     -623.91547      8180.3853     -9945.1094      64460.213      18409.122      0              1.6076757     -63210.391      22124.858      1.5275294    
    933500   933500         261.07745      261.07745      80534.092      80471.834      62.257782     -622.16561      8181.0172     -9944.7181      64451.723      18404.37       0              1.6076757     -62858.272      22124.858      1.5275294    
    934000   934000         285.55184      285.55184      80567.535      80499.441      68.094063     -623.53522      8178.1233     -9945.1184      64469.776      18418.587      0              1.6076757     -62356.628      22124.858      1.5275294    
    934500   934500         241.26211      241.26211      80563.484      80505.952      57.532522     -620.78628      8180.8706     -9944.6069      64478.056      18410.811      0              1.6076757     -63662.911      22124.858      1.5275294    
    935000   935000         212.84657      212.84657      80553.485      80502.729      50.756417     -620.24252      8175.2935     -9945.1767      64470.644      18420.603      0              1.6076757     -62136.111      22124.858      1.5275294    
    935500   935500         209.6872       209.6872       80549.434      80499.43       50.003018     -623.77369      8183.3866     -9944.7723      64468.194      18414.788      0              1.6076757     -63653.749      22124.858      1.5275294    
    936000   936000         246.35272      246.35272      80556.702      80497.955      58.746453     -623.46385      8180.1981     -9944.8293      64461.409      18423.033      0              1.6076757     -62674.761      22124.858      1.5275294    
    936500   936500         321.11514      321.11514      80557.89       80481.315      76.574658     -622.29377      8179.8662     -9944.6059      64452.305      18414.436      0              1.6076757     -62929.166      22124.858      1.5275294    
    937000   937000         416.67252      416.67252      80587.068      80487.707      99.361731     -620.09962      8175.8698     -9944.6279      64451.365      18423.591      0              1.6076757     -62684.727      22124.858      1.5275294    
    937500   937500         365.2604       365.2604       80568.421      80481.32       87.101751     -619.95722      8178.5652     -9944.7047      64452.418      18413.391      0              1.6076757     -62903.428      22124.858      1.5275294    
    938000   938000         334.84827      334.84827      80562.907      80483.058      79.849527     -619.54815      8175.8251     -9944.6341      64458.448      18411.36       0              1.6076757     -62669.797      22124.858      1.5275294    
    938500   938500         314.77011      314.77011      80559.148      80484.086      75.061593     -622.50856      8179.4062     -9944.3596      64463.174      18406.766      0              1.6076757     -62567.495      22124.858      1.5275294    
    939000   939000         317.78456      317.78456      80556.639      80480.859      75.780433     -622.11846      8178.586      -9944.6127      64460.962      18406.434      0              1.6076757     -62961.376      22124.858      1.5275294    
    939500   939500         337.30517      337.30517      80563.726      80483.291      80.435412     -618.02137      8175.5142     -9944.2258      64457.398      18411.018      0              1.6076757     -62565.354      22124.858      1.5275294    
    940000   940000         362.89937      362.89937      80571.097      80484.558      86.538728     -621.39653      8177.0704     -9944.4767      64457.154      18414.599      0              1.6076757     -62638.212      22124.858      1.5275294    
    940500   940500         302.22657      302.22657      80557.267      80485.197      72.0704       -621.45289      8180.5759     -9944.9854      64456.48       18412.972      0              1.6076757     -63156.959      22124.858      1.5275294    
    941000   941000         286.51757      286.51757      80558.607      80490.283      68.324357     -622.61238      8177.9011     -9944.3439      64460.921      18416.809      0              1.6076757     -62433.42       22124.858      1.5275294    
    941500   941500         341.1227       341.1227       80566.361      80485.016      81.345758     -621.84875      8178.8402     -9944.395       64460.604      18410.208      0              1.6076757     -63185.91       22124.858      1.5275294    
    942000   942000         337.19866      337.19866      80564.044      80483.634      80.410013     -619.36495      8176.9878     -9944.3445      64457.657      18411.091      0              1.6076757     -62319.488      22124.858      1.5275294    
    942500   942500         315.51848      315.51848      80555.147      80479.907      75.240053     -621.63099      8177.0795     -9944.7208      64455.846      18411.726      0              1.6076757     -63165.781      22124.858      1.5275294    
    943000   943000         305.38911      305.38911      80553.866      80481.042      72.824555     -622.20618      8180.3478     -9945.2514      64455.111      18411.433      0              1.6076757     -62386.448      22124.858      1.5275294    
    943500   943500         318.66669      318.66669      80575.032      80499.041      75.99079      -622.4145       8179.801      -9944.5534      64464.845      18419.756      0              1.6076757     -63335.653      22124.858      1.5275294    
    944000   944000         312.88105      312.88105      80579.774      80505.162      74.611119     -623.2072       8181.8412     -9944.8346      64465.559      18424.196      0              1.6076757     -62727.982      22124.858      1.5275294    
    944500   944500         276.44173      276.44173      80561.536      80495.614      65.921623     -619.44803      8175.3832     -9944.772       64462.702      18420.141      0              1.6076757     -62701.555      22124.858      1.5275294    
    945000   945000         238.32133      238.32133      80548.284      80491.453      56.831249     -621.77034      8178.328      -9944.8363      64464.835      18413.289      0              1.6076757     -63494.644      22124.858      1.5275294    
    945500   945500         207.07873      207.07873      80550.738      80501.357      49.380989     -624.18168      8181.8669     -9944.938       64466.12       18420.882      0              1.6076757     -62168.828      22124.858      1.5275294    
    946000   946000         246.46895      246.46895      80552.238      80493.464      58.774169     -619.71324      8175.2644     -9944.3759      64463.51       18417.171      0              1.6076757     -63781.284      22124.858      1.5275294    
    946500   946500         294.82162      294.82162      80562.362      80492.057      70.304581     -622.77237      8181.3236     -9944.8851      64456.733      18420.05       0              1.6076757     -62253.064      22124.858      1.5275294    
    947000   947000         329.35523      329.35523      80570.378      80491.839      78.539631     -619.15132      8175.3347     -9944.6316      64457.135      18421.544      0              1.6076757     -63087.884      22124.858      1.5275294    
    947500   947500         335.37064      335.37064      80579.708      80499.734      79.974094     -620.67625      8178.3072     -9945.0209      64469.212      18416.305      0              1.6076757     -62954.102      22124.858      1.5275294    
    948000   948000         258.63142      258.63142      80561.829      80500.155      61.674492     -623.97222      8182.5519     -9944.7596      64467.158      18417.57       0              1.6076757     -62589.953      22124.858      1.5275294    
    948500   948500         223.47134      223.47134      80553.757      80500.467      53.290049     -622.84073      8178.6464     -9945.0516      64470.66       18417.445      0              1.6076757     -63318.588      22124.858      1.5275294    
    949000   949000         227.33013      227.33013      80550.518      80496.308      54.210234     -620.48738      8178.1727     -9945.0668      64466.592      18415.49       0              1.6076757     -62708.975      22124.858      1.5275294    
    949500   949500         251.06402      251.06402      80546.536      80486.666      59.869932     -620.7236       8178.2642     -9944.7622      64461.014      18411.266      0              1.6076757     -62841.023      22124.858      1.5275294    
    950000   950000         286.59957      286.59957      80560.557      80492.214      68.34391      -622.27008      8177.795      -9944.7788      64459.808      18420.052      0              1.6076757     -63084.838      22124.858      1.5275294    
    950500   950500         302.13443      302.13443      80564.122      80492.074      72.048427     -621.38655      8179.8303     -9944.3274      64457.466      18418.884      0              1.6076757     -62568.036      22124.858      1.5275294    
    951000   951000         302.57954      302.57954      80559.314      80487.159      72.154572     -622.24693      8176.4748     -9944.737       64455.222      18420.839      0              1.6076757     -63333.22       22124.858      1.5275294    
    951500   951500         266.0855       266.0855       80543.111      80479.659      63.452026     -618.98913      8176.3264     -9944.5718      64451.6        18413.686      0              1.6076757     -62219.391      22124.858      1.5275294    
    952000   952000         282.69276      282.69276      80549.474      80482.062      67.412273     -619.57198      8175.1738     -9944.3629      64458.183      18411.032      0              1.6076757     -63557.479      22124.858      1.5275294    
    952500   952500         284.22511      284.22511      80556.677      80488.899      67.777686     -623.00436      8179.5714     -9944.3033      64459.672      18415.356      0              1.6076757     -61940.973      22124.858      1.5275294    
    953000   953000         276.22615      276.22615      80564.519      80498.648      65.870215     -622.65611      8180.8682     -9944.7277      64468.054      18415.502      0              1.6076757     -63811.781      22124.858      1.5275294    
    953500   953500         272.49971      272.49971      80565.679      80500.698      64.981591     -620.34699      8174.8597     -9944.1233      64467.064      18421.636      0              1.6076757     -62161.352      22124.858      1.5275294    
    954000   954000         284.34537      284.34537      80555.748      80487.942      67.806363     -618.79097      8177.9846     -9944.2521      64460.354      18411.039      0              1.6076757     -63249.511      22124.858      1.5275294    
    954500   954500         294.45753      294.45753      80555.159      80484.941      70.217758     -621.66525      8177.4208     -9944.9962      64453.559      18419.015      0              1.6076757     -62487.389      22124.858      1.5275294    
    955000   955000         276.18452      276.18452      80552.072      80486.212      65.860288     -622.20775      8181.5286     -9943.9822      64454.905      18414.36       0              1.6076757     -63272.564      22124.858      1.5275294    
    955500   955500         303.89986      303.89986      80562.529      80490.059      72.469421     -621.48597      8177.325      -9944.6612      64462.716      18414.557      0              1.6076757     -62512.903      22124.858      1.5275294    
    956000   956000         312.39681      312.39681      80570.598      80496.103      74.495644     -620.79176      8178.6315     -9944.4227      64474.883      18406.195      0              1.6076757     -62747.609      22124.858      1.5275294    
    956500   956500         275.78196      275.78196      80557.179      80491.414      65.764291     -618.7161       8174.0712     -9944.9791      64468.073      18411.358      0              1.6076757     -63027.921      22124.858      1.5275294    
    957000   957000         258.44134      258.44134      80548.363      80486.734      61.629164     -623.60712      8181.6425     -9944.8723      64462.765      18409.199      0              1.6076757     -62448.857      22124.858      1.5275294    
    957500   957500         270.50125      270.50125      80546.337      80481.832      64.505027     -622.54595      8177.8139     -9945.0573      64460.14       18409.873      0              1.6076757     -63181.754      22124.858      1.5275294    
    958000   958000         312.92798      312.92798      80562.622      80488          74.62231      -623.77791      8184.7309     -9944.6429      64459.225      18410.858      0              1.6076757     -62658.888      22124.858      1.5275294    
    958500   958500         331.36714      331.36714      80563.467      80484.448      79.0194       -622.4305       8178.009      -9944.8851      64455.904      18416.243      0              1.6076757     -62693.659      22124.858      1.5275294    
    959000   959000         346.68799      346.68799      80557.82       80475.148      82.672883     -618.7763       8176.4829     -9944.4172      64455.258      18404.993      0              1.6076757     -63043.678      22124.858      1.5275294    
    959500   959500         303.24876      303.24876      80546.667      80474.352      72.314156     -623.10189      8179.0782     -9944.7414      64453.614      18407.896      0              1.6076757     -62390.084      22124.858      1.5275294    
    960000   960000         295.88408      295.88408      80553.487      80482.929      70.557939     -622.28168      8181.3162     -9944.8065      64455.991      18411.102      0              1.6076757     -62919.711      22124.858      1.5275294    
    960500   960500         318.7577       318.7577       80561.728      80485.716      76.012492     -623.10822      8180.0175     -9944.5324      64459.539      18412.192      0              1.6076757     -62979.004      22124.858      1.5275294    
    961000   961000         277.04152      277.04152      80549.188      80483.123      66.064652     -621.20239      8177.6618     -9944.8668      64459.293      18410.63       0              1.6076757     -62466.865      22124.858      1.5275294    
    961500   961500         269.70567      269.70567      80552.214      80487.899      64.31531      -620.07861      8178.2739     -9944.9615      64460.235      18412.823      0              1.6076757     -63131.821      22124.858      1.5275294    
    962000   962000         300.7713       300.7713       80562.652      80490.929      71.723369     -623.10961      8179.0634     -9944.7713      64459.171      18418.968      0              1.6076757     -62683.499      22124.858      1.5275294    
    962500   962500         348.41289      348.41289      80569.319      80486.234      83.084213     -623.40547      8184.0488     -9944.7835      64456.291      18412.476      0              1.6076757     -62822.269      22124.858      1.5275294    
    963000   963000         375.17419      375.17419      80574.235      80484.769      89.465839     -621.76856      8177.2493     -9945.161       64457.761      18415.081      0              1.6076757     -62943.6        22124.858      1.5275294    
    963500   963500         329.65748      329.65748      80573.781      80495.169      78.611707     -621.07556      8180.0936     -9944.7544      64458.822      18420.475      0              1.6076757     -62639.365      22124.858      1.5275294    
    964000   964000         319.62636      319.62636      80559.164      80482.945      76.219638     -619.22715      8175.579      -9944.9577      64458.119      18411.824      0              1.6076757     -62761.059      22124.858      1.5275294    
    964500   964500         286.25173      286.25173      80552.218      80483.957      68.260962     -620.35183      8175.7142     -9944.4352      64458.673      18412.749      0              1.6076757     -63148.14       22124.858      1.5275294    
    965000   965000         266.85039      266.85039      80564.718      80501.083      63.634427     -623.48542      8182.1768     -9944.7631      64464.368      18421.18       0              1.6076757     -62336.44       22124.858      1.5275294    
    965500   965500         305.72615      305.72615      80574.55       80501.645      72.904927     -621.02573      8178.6339     -9944.6561      64472.768      18414.317      0              1.6076757     -63592.567      22124.858      1.5275294    
    966000   966000         288.62457      288.62457      80565.86       80497.033      68.826802     -620.9442       8179.9913     -9944.8895      64465.397      18415.871      0              1.6076757     -62112.086      22124.858      1.5275294    
    966500   966500         285.82465      285.82465      80555.947      80487.788      68.159119     -620.27051      8177.2958     -9945.3748      64456.329      18418.201      0              1.6076757     -63359.21       22124.858      1.5275294    
    967000   967000         348.07922      348.07922      80561.729      80478.725      83.004644     -621.32591      8179.9669     -9944.438       64451.001      18411.913      0              1.6076757     -62735.623      22124.858      1.5275294    
    967500   967500         376.99444      376.99444      80577.173      80487.273      89.899906     -623.73951      8181.6841     -9944.688       64450.299      18422.11       0              1.6076757     -62548.048      22124.858      1.5275294    
    968000   968000         335.52648      335.52648      80562.412      80482.401      80.011256     -621.61099      8177.2461     -9944.7775      64453.329      18416.606      0              1.6076757     -63230.999      22124.858      1.5275294    
    968500   968500         268.11776      268.11776      80557.452      80493.516      63.93665      -620.51813      8178.979      -9944.6087      64459.594      18418.462      0              1.6076757     -62373.99       22124.858      1.5275294    
    969000   969000         213.52298      213.52298      80551.349      80500.432      50.917716     -620.75064      8176.3923     -9944.4899      64466.584      18421.088      0              1.6076757     -63644.571      22124.858      1.5275294    
    969500   969500         241.98445      241.98445      80560.559      80502.854      57.704775     -621.77531      8179.9075     -9944.3698      64466.347      18421.137      0              1.6076757     -62092.677      22124.858      1.5275294    
    970000   970000         254.87421      254.87421      80547.088      80486.309      60.778528     -622.71157      8178.32       -9944.7976      64463.721      18410.17       0              1.6076757     -63800.005      22124.858      1.5275294    
    970500   970500         244.17667      244.17667      80544.515      80486.288      58.227542     -620.26033      8177.4701     -9944.4597      64457.827      18414.103      0              1.6076757     -61927.947      22124.858      1.5275294    
    971000   971000         292.59091      292.59091      80564.298      80494.525      69.772634     -618.46652      8174.9889     -9944.7356      64461.563      18419.567      0              1.6076757     -63655.328      22124.858      1.5275294    
    971500   971500         296.43072      296.43072      80553.625      80482.936      70.688293     -622.16142      8179.3288     -9944.5009      64454.249      18414.413      0              1.6076757     -62426.148      22124.858      1.5275294    
    972000   972000         292.57959      292.57959      80548.573      80478.803      69.769934     -622.44371      8180.3674     -9944.4612      64455.627      18408.106      0              1.6076757     -62752.41       22124.858      1.5275294    
    972500   972500         279.68252      279.68252      80559.386      80492.691      66.694436     -620.87978      8175.846      -9944.8084      64464.194      18416.731      0              1.6076757     -63132.149      22124.858      1.5275294    
    973000   973000         274.54006      274.54006      80558.705      80493.237      65.468142     -620.39591      8178.9778     -9944.264       64463.201      18414.111      0              1.6076757     -62578.49       22124.858      1.5275294    
    973500   973500         264.27616      264.27616      80545.143      80482.122      63.020564     -620.66784      8177.6809     -9944.9708      64459.941      18408.532      0              1.6076757     -62855.885      22124.858      1.5275294    
    974000   974000         259.94523      259.94523      80550.166      80488.178      61.987789     -618.36755      8172.6643     -9944.5399      64457.471      18419.342      0              1.6076757     -62870.678      22124.858      1.5275294    
    974500   974500         315.13606      315.13606      80564.983      80489.834      75.148858     -623.66524      8184.0685     -9944.5914      64459.104      18413.31       0              1.6076757     -62827.948      22124.858      1.5275294    
    975000   975000         326.24614      326.24614      80562.74       80484.942      77.798222     -620.78456      8175.646      -9944.6511      64459.156      18413.968      0              1.6076757     -62887.228      22124.858      1.5275294    
    975500   975500         317.26378      317.26378      80566.147      80490.491      75.656245     -619.36673      8178.8358     -9945.0063      64458.81       18415.611      0              1.6076757     -62554.242      22124.858      1.5275294    
    976000   976000         311.63184      311.63184      80559.5        80485.187      74.313225     -618.5864       8174.138      -9944.2138      64458.545      18413.696      0              1.6076757     -63036.442      22124.858      1.5275294    
    976500   976500         307.1449       307.1449       80554.996      80481.752      73.243248     -622.07086      8180.7621     -9944.6875      64461.579      18404.562      0              1.6076757     -62339.347      22124.858      1.5275294    
    977000   977000         221.81056      221.81056      80536.651      80483.757      52.894012     -621.45199      8175.7001     -9944.5751      64459.128      18413.349      0              1.6076757     -63398.324      22124.858      1.5275294    
    977500   977500         308.66532      308.66532      80568.47       80494.864      73.605815     -622.24774      8182.118      -9944.8468      64465.643      18412.59       0              1.6076757     -62067.609      22124.858      1.5275294    
    978000   978000         330.02081      330.02081      80565.554      80486.856      78.698348     -621.0929       8177.4977     -9944.9298      64462.311      18411.461      0              1.6076757     -63456.573      22124.858      1.5275294    
    978500   978500         252.27133      252.27133      80545.769      80485.611      60.157833     -620.26416      8178.1437     -9944.8581      64455.264      18415.718      0              1.6076757     -62296.349      22124.858      1.5275294    
    979000   979000         281.30957      281.30957      80545.62       80478.538      67.082431     -621.82316      8177.0832     -9944.3276      64456.17       18409.828      0              1.6076757     -63356.84       22124.858      1.5275294    
    979500   979500         302.67053      302.67053      80554.313      80482.137      72.176268     -623.05662      8181.8175     -9944.6299      64457.753      18408.645      0              1.6076757     -62338.622      22124.858      1.5275294    
    980000   980000         294.04584      294.04584      80567.934      80497.814      70.119584     -620.11378      8176.3747     -9944.5693      64458.425      18426.09       0              1.6076757     -63018.198      22124.858      1.5275294    
    980500   980500         294.41261      294.41261      80561.447      80491.24       70.207046     -620.14548      8177.8123     -9944.4979      64461.07       18415.393      0              1.6076757     -63091.014      22124.858      1.5275294    
    981000   981000         244.38381      244.38381      80551.719      80493.443      58.276937     -622.04917      8181.0557     -9944.9172      64459.865      18417.881      0              1.6076757     -62509.366      22124.858      1.5275294    
    981500   981500         263.69029      263.69029      80562.927      80500.046      62.880854     -621.61161      8177.892      -9944.2365      64462.161      18424.234      0              1.6076757     -63442.064      22124.858      1.5275294    
    982000   982000         339.25496      339.25496      80571.569      80490.669      80.900368     -622.92369      8180.7995     -9945.218       64460.977      18415.426      0              1.6076757     -62510.345      22124.858      1.5275294    
    982500   982500         287.95828      287.95828      80564.391      80495.723      68.667916     -621.50527      8180.1445     -9944.2055      64462.852      18416.83       0              1.6076757     -62947.767      22124.858      1.5275294    
    983000   983000         266.05651      266.05651      80554.045      80490.6        63.445113     -619.95923      8176.3024     -9945.4884      64460.336      18417.801      0              1.6076757     -63033.714      22124.858      1.5275294    
    983500   983500         329.8161       329.8161       80562.704      80484.055      78.649531     -623.78291      8181.6297     -9944.8873      64460.234      18409.253      0              1.6076757     -62606.637      22124.858      1.5275294    
    984000   984000         296.30668      296.30668      80564.561      80493.902      70.658714     -621.62983      8180.7408     -9944.4525      64461.52       18416.117      0              1.6076757     -63128.59       22124.858      1.5275294    
    984500   984500         277.45018      277.45018      80556.951      80490.789      66.162102     -620.42376      8175.5077     -9944.8622      64460.733      18418.226      0              1.6076757     -62367.813      22124.858      1.5275294    
    985000   985000         311.16911      311.16911      80559.656      80485.453      74.202882     -621.8681       8181.1238     -9944.8308      64462.729      18406.692      0              1.6076757     -63408.949      22124.858      1.5275294    
    985500   985500         298.38307      298.38307      80568.207      80497.053      71.153861     -619.9427       8177.8007     -9944.7191      64462.211      18420.096      0              1.6076757     -62336.709      22124.858      1.5275294    
    986000   986000         311.23993      311.23993      80557.056      80482.837      74.219769     -619.78525      8179.1728     -9945.1816      64456.046      18410.977      0              1.6076757     -62993.437      22124.858      1.5275294    
    986500   986500         320.53461      320.53461      80548.392      80471.955      76.436223     -621.56159      8176.7756     -9944.6885      64449.603      18410.219      0              1.6076757     -62866.756      22124.858      1.5275294    
    987000   987000         319.11274      319.11274      80560.056      80483.958      76.097158     -624.5146       8185.3482     -9945.2014      64451.871      18414.848      0              1.6076757     -62442.639      22124.858      1.5275294    
    987500   987500         343.29209      343.29209      80564.667      80482.804      81.86308      -619.61514      8175.9564     -9944.529       64457.202      18412.182      0              1.6076757     -63413.573      22124.858      1.5275294    
    988000   988000         271.69637      271.69637      80544.877      80480.087      64.790023     -620.18611      8175.8504     -9944.7807      64455.79       18411.807      0              1.6076757     -62152.384      22124.858      1.5275294    
    988500   988500         251.399        251.399        80562.196      80502.247      59.949813     -623.18433      8182.4334     -9944.9217      64468.407      18417.904      0              1.6076757     -63439.561      22124.858      1.5275294    
    989000   989000         288.11547      288.11547      80567.321      80498.616      68.7054       -620.79878      8177.7491     -9944.2231      64470.305      18413.976      0              1.6076757     -62429.623      22124.858      1.5275294    
    989500   989500         264.02102      264.02102      80541.093      80478.133      62.95972      -622.50969      8179.8756     -9944.9025      64458.394      18405.668      0              1.6076757     -63220.588      22124.858      1.5275294    
    990000   990000         276.77268      276.77268      80552.05       80486.05       66.000543     -620.7418       8177.3627     -9944.5275      64458.497      18413.851      0              1.6076757     -62285.156      22124.858      1.5275294    
    990500   990500         331.61376      331.61376      80560.854      80481.775      79.078211     -618.02526      8175.1932     -9944.2234      64462.304      18404.919      0              1.6076757     -62891.963      22124.858      1.5275294    
    991000   991000         356.83814      356.83814      80562.894      80477.8        85.093338     -619.33877      8174.3623     -9944.3193      64458.68       18406.809      0              1.6076757     -62907.483      22124.858      1.5275294    
    991500   991500         289.14844      289.14844      80553.498      80484.546      68.951726     -620.74374      8178.0504     -9944.15        64457.504      18412.278      0              1.6076757     -61967.468      22124.858      1.5275294    
    992000   992000         303.066        303.066        80549.473      80477.202      72.270574     -619.28756      8174.3833     -9944.6316      64456.807      18408.324      0              1.6076757     -63632.439      22124.858      1.5275294    
    992500   992500         283.57868      283.57868      80554.918      80487.294      67.623534     -621.84582      8180.2335     -9944.6774      64461.819      18410.157      0              1.6076757     -61984.939      22124.858      1.5275294    
    993000   993000         277.45246      277.45246      80557.736      80491.573      66.162646     -620.98806      8179.0812     -9944.5302      64462.642      18413.76       0              1.6076757     -63596.119      22124.858      1.5275294    
    993500   993500         305.24335      305.24335      80560.307      80487.517      72.789794     -619.73259      8176.251      -9944.6063      64463.838      18410.16       0              1.6076757     -62161.919      22124.858      1.5275294    
    994000   994000         369.24358      369.24358      80584.028      80495.976      88.051599     -621.18732      8179.4735     -9944.873       64470.571      18410.384      0              1.6076757     -62817.988      22124.858      1.5275294    
    994500   994500         327.16074      327.16074      80569.302      80491.286      78.016321     -619.59889      8177.2804     -9944.5766      64460.808      18415.766      0              1.6076757     -63140.322      22124.858      1.5275294    
    995000   995000         336.42744      336.42744      80562.489      80482.263      80.226103     -618.78326      8176.7476     -9944.5982      64457.787      18409.502      0              1.6076757     -62032.917      22124.858      1.5275294    
    995500   995500         354.68589      354.68589      80559.259      80474.679      84.580102     -622.47749      8178.7576     -9944.9792      64454.132      18407.639      0              1.6076757     -63394.124      22124.858      1.5275294    
    996000   996000         283.99627      283.99627      80549.601      80481.877      67.723116     -621.44226      8179.4735     -9944.4186      64452.907      18413.75       0              1.6076757     -62366.012      22124.858      1.5275294    
    996500   996500         279.11324      279.11324      80549.969      80483.41       66.558684     -621.40827      8178.5157     -9944.6895      64459.344      18410.04       0              1.6076757     -62990.428      22124.858      1.5275294    
    997000   997000         307.91001      307.91001      80560.119      80486.694      73.4257       -621.16927      8177.9523     -9944.473       64464.091      18408.685      0              1.6076757     -62605.798      22124.858      1.5275294    
    997500   997500         281.45629      281.45629      80560.244      80493.127      67.117419     -619.36503      8178.2308     -9944.1748      64459.999      18416.829      0              1.6076757     -63101.088      22124.858      1.5275294    
    998000   998000         263.22318      263.22318      80546.657      80483.887      62.769465     -620.58285      8176.0505     -9944.6557      64455.541      18415.927      0              1.6076757     -62392.942      22124.858      1.5275294    
    998500   998500         269.11472      269.11472      80552.521      80488.347      64.174388     -621.29937      8178.5832     -9944.3657      64464.406      18409.415      0              1.6076757     -63342.321      22124.858      1.5275294    
    999000   999000         247.26313      247.26313      80555.718      80496.754      58.963554     -621.89953      8179.5539     -9944.8442      64464.185      18418.152      0              1.6076757     -62433.617      22124.858      1.5275294    
    999500   999500         296.4993       296.4993       80583.049      80512.344      70.704646     -619.87075      8177.4555     -9945.214       64474.284      18424.082      0              1.6076757     -63340.145      22124.858      1.5275294    
   1000000   1000000        285.60082      285.60082      80563.765      80495.659      68.105744     -623.70878      8182.5474     -9945.6312      64465.319      18415.525      0              1.6076757     -62927.175      22124.858      1.5275294    
WARNING: Bond/angle/dihedral extent > half of periodic box length (src/src/domain.cpp:1174)
Loop time of 4550.74 on 1 procs for 1000000 steps with 1269 atoms

Performance: 18.986 ns/day, 1.264 hours/ns, 219.745 timesteps/s, 278.856 katom-step/s
97.6% CPU use with 1 MPI tasks x 1 OpenMP threads

MPI task timing breakdown:
Section |  min time  |  avg time  |  max time  |%varavg| %total
---------------------------------------------------------------
Pair    | 3460.5     | 3460.5     | 3460.5     |   0.0 | 76.04
Bond    | 242.27     | 242.27     | 242.27     |   0.0 |  5.32
Kspace  | 737.46     | 737.46     | 737.46     |   0.0 | 16.21
Neigh   | 53.006     | 53.006     | 53.006     |   0.0 |  1.16
Comm    | 30.614     | 30.614     | 30.614     |   0.0 |  0.67
Output  | 1.7005     | 1.7005     | 1.7005     |   0.0 |  0.04
Modify  | 16.382     | 16.382     | 16.382     |   0.0 |  0.36
Other   |            | 8.81       |            |       |  0.19

Nlocal:           1269 ave        1269 max        1269 min
Histogram: 1 0 0 0 0 0 0 0 0 0
Nghost:           9077 ave        9077 max        9077 min
Histogram: 1 0 0 0 0 0 0 0 0 0
Neighs:         422681 ave      422681 max      422681 min
Histogram: 1 0 0 0 0 0 0 0 0 0

Total # of neighbors = 422681
Ave neighs/atom = 333.08195
Ave special neighs/atom = 15.617021
Neighbor list builds = 2873
Dangerous builds = 0

print           "=== Production Complete ==="
=== Production Complete ===

# ---- Final Output
write_restart   restart.final
System init for write_restart ...
PPPM initialization ...
  using 12-bit tables for long-range coulomb
  G vector (1/distance) = 0.24486585
  grid = 16 18 24
  stencil order = 5
  estimated absolute RMS force accuracy = 0.0019783888
  estimated relative force accuracy = 5.9578592e-06
  using double precision KISS FFT
  3d grid and FFT values/proc = 17825 6912
Generated 21 of 21 mixed pair_coeff terms from geometric mixing rule
write_data      final.data nocoeff
System init for write_data ...
PPPM initialization ...
  using 12-bit tables for long-range coulomb
  G vector (1/distance) = 0.24486585
  grid = 16 18 24
  stencil order = 5
  estimated absolute RMS force accuracy = 0.0019783888
  estimated relative force accuracy = 5.9578592e-06
  using double precision KISS FFT
  3d grid and FFT values/proc = 17825 6912
Generated 21 of 21 mixed pair_coeff terms from geometric mixing rule

# ---- Print Analysis Instructions
print           "========================================"
========================================
print           "Simulation Complete"
Simulation Complete
print           "========================================"
========================================
print           "MSD data written to: msd.dat"
MSD data written to: msd.dat
print           "Trajectory written to: prod.lammpstrj"
Trajectory written to: prod.lammpstrj
print           ""

print           "To extract self-diffusion coefficient D:"
To extract self-diffusion coefficient D:
print           "  D = lim(t->inf) MSD / (6*t)"
  D = lim(t->inf) MSD / (6*t)
print           "  Fit linear region of MSD vs time"
  Fit linear region of MSD vs time
print           "  D units: Angstrom^2/fs -> multiply by 0.1 for cm^2/s"
  D units: Angstrom^2/fs -> multiply by 0.1 for cm^2/s
print           "  Or: D [m^2/s] = D [A^2/fs] * 1e-5"
  Or: D [m^2/s] = D [A^2/fs] * 1e-5
print           "========================================"
========================================
Total wall time: 1:18:57
